BEGIN IONS
PEPMASS=347.149
CHARGE=1+
COMPOUNDNAME=gibberellic acid
LIBRARYQUALITY=3
SMILES=N/A
INCHIKEY=IXORZMNAPKEEDV-OBDJNFEBSA-N
INCHI=InChI=1S/C19H22O6/c1-9-7-17-8-18(9,24)5-3-10(17)19-6-4-11(20)16(2,15(23)25-19)13(19)12(17)14(21)22/h4,6,10-13,20,24H,1,3,5,7-8H2,2H3,(H,21,22)/t10-,11+,12-,13-,16-,17+,18+,19-/m1/s1
MSLEVEL=2
SOURCE_INSTRUMENT=N/A-ESI-QFT
FILENAME=library_mgf.mgf
SEQ=*..*
IONMODE=positive
ORGANISM=MONA
NAME=gibberellic acid [M+H]+
PI=MoNA
DATACOLLECTOR=MoNA:VF-NPL-QEHF000262
PUBMED=N/A
SUBMITUSER=mwang87
TAGS=
SPECTRUMID=CCMSLIB00004691325
SCANS=262
52.05592 0.133224 
52.591785 0.162912 
52.770077 0.151822 
52.932964 0.152787 
53.288319 0.170878 
55.018543 1.503308 
55.05497 4.217174 
55.569763 0.201227 
55.935112 1.337142 
56.283802 0.148027 
56.692478 0.172386 
56.800865 0.18018 
57.03413 3.100275 
57.07056 11.699195 
57.144661 0.153827 
58.065826 3.103949 
58.38549 0.181176 
58.685741 0.129429 
59.049843 3.937432 
59.061073 77.038605 
59.062523 1.083612 
59.074982 0.166105 
60.044796 0.204622 
60.064377 0.874092 
61.011318 41.104847 
61.012955 0.802226 
61.195496 0.168627 
61.699833 0.173938 
62.014809 0.191674 
62.019127 8.362049 
62.020782 0.142381 
62.046562 0.198344 
62.904259 0.166456 
63.007114 0.896298 
63.29427 0.179495 
64.461601 0.131339 
65.855453 0.17234 
66.926735 0.151701 
67.054932 7.275298 
67.277901 0.17674 
68.247841 0.169868 
69.070503 8.917354 
69.761497 0.148775 
70.065926 0.201602 
70.332443 0.181356 
71.049736 1.408267 
71.086205 8.646941 
72.746544 0.167805 
72.937675 4.111762 
72.970932 0.143274 
73.029213 0.348616 
73.047371 5.650476 
73.065392 0.211654 
73.321541 0.161166 
74.060722 0.195952 
74.559029 0.136305 
75.134438 0.145379 
76.643593 0.302254 
78.120773 0.13471 
78.979172 0.189929 
79.021835 20.007786 
79.054749 2.137094 
81.019051 3.632241 
81.053345 0.164506 
81.070457 13.861847 
83.049644 1.275608 
83.086121 10.232726 
83.708153 0.147739 
84.411316 0.157795 
85.029053 0.632755 
85.040154 1.854294 
85.065231 1.644893 
85.101608 3.048279 
86.060364 0.187983 
86.096786 2.77191 
87.044502 2.033443 
88.076149 1.208332 
88.58683 0.187439 
89.060204 7.330571 
89.873848 0.131056 
89.94017 0.187997 
89.96405 2.532907 
90.948082 2.594367 
91.054596 6.467766 
91.057701 9.557094 
92.057465 0.188771 
93.070335 7.367056 
93.228142 0.155092 
94.026604 1.393475 
95.049522 2.164722 
95.085983 18.407248 
96.089165 0.695382 
96.104744 0.172586 
97.065277 11.119862 
97.101562 6.872962 
97.737442 0.188822 
98.975761 24.930342 
98.984451 1.29134 
99.044327 0.199067 
99.08075 2.591906 
100.076035 1.126947 
100.757828 0.171518 
101.003311 2.669017 
101.060043 1.433853 
101.950211 1.817819 
102.948189 0.178839 
103.061691 0.156906 
103.716499 0.188177 
103.797287 0.222148 
104.986893 0.142808 
104.992523 0.42792 
105.070038 2.024813 
105.61467 0.220291 
107.085876 13.404393 
109.064964 6.213897 
109.101501 14.994322 
110.241325 0.214882 
111.044243 3.199709 
111.080597 2.118285 
111.117172 2.050221 
112.236 0.128115 
113.059792 2.279602 
113.753601 0.153233 
114.091629 0.942542 
115.075325 0.176305 
116.963768 0.461494 
116.98616 19.73912 
117.070427 0.189885 
118.449409 0.137094 
119.085739 10.742562 
120.536728 0.193518 
121.064903 1.013184 
121.101379 9.88762 
122.104576 0.20188 
123.08075 1.534036 
123.116959 10.907546 
124.120087 0.602527 
125.096107 3.889466 
125.115494 0.206952 
127.036705 19.861595 
127.075455 0.206008 
127.112053 0.197943 
128.039688 0.206098 
128.292068 0.139018 
128.963409 4.331005 
129.052216 6.928316 
129.422607 0.153754 
130.158844 0.250437 
130.97937 1.720787 
131.070084 0.201022 
131.085434 1.570278 
132.958282 4.229058 
133.085709 1.0772 
133.101105 3.252838 
134.956085 6.899267 
134.961838 0.171452 
134.996445 5.915985 
135.080276 0.790824 
135.116898 16.803427 
135.94873 0.165335 
136.120193 0.529779 
137.096024 1.586192 
137.132278 1.085096 
137.248306 0.179581 
139.111649 1.274741 
141.090607 0.274769 
142.123016 0.165986 
142.158493 0.396737 
142.962234 0.199837 
142.979065 0.39505 
143.085587 0.38568 
143.106216 0.217579 
144.958435 0.875117 
145.101074 1.578995 
145.966599 1.237761 
145.989594 0.240421 
146.974121 6.000676 
147.080078 0.488448 
147.116806 2.027453 
147.974426 0.185657 
148.955704 1.23903 
148.971863 12.612627 
148.989456 0.282206 
149.095367 1.187549 
149.132339 3.061197 
149.970947 0.179062 
150.95105 39.316685 
150.968658 4.068646 
151.111572 1.514491 
151.148056 0.215783 
151.943588 4.80753 
151.950104 0.711586 
152.287979 0.185028 
152.945694 0.425593 
152.951614 3.759517 
152.966583 5.072208 
153.127426 2.63166 
153.938965 1.641143 
153.958923 1.036047 
154.122452 3.618597 
154.946655 1.13633 
155.085251 0.489142 
155.106339 0.178817 
155.954407 0.203236 
156.138214 0.204259 
157.083511 21.616629 
157.101135 0.191749 
158.010971 0.867054 
158.086868 0.236074 
158.794464 0.162623 
158.973602 0.24462 
158.995667 0.181558 
159.11673 1.56836 
159.968887 0.449339 
160.0065 0.398092 
160.989624 2.169283 
161.095947 0.813864 
161.132263 1.328876 
162.502869 0.155204 
162.951019 0.261875 
163.075256 0.193931 
163.111649 1.467368 
163.148087 0.282938 
163.976868 1.991956 
164.95137 0.743387 
164.96666 3.789662 
164.986816 0.189069 
165.091919 0.195472 
165.938156 2.374389 
166.96611 0.569124 
166.982346 1.533564 
167.106506 0.156444 
167.117554 1.222149 
167.920227 9.506393 
167.953735 0.214223 
168.916977 5.20426 
168.961685 15.746247 
168.982513 2.710358 
169.121902 0.621845 
169.916962 2.2383 
169.954269 0.258874 
170.917542 5.485381 
170.956284 0.437704 
170.977936 0.282403 
171.098907 0.184569 
172.005463 0.619882 
172.026947 0.229019 
172.913666 4.250972 
172.989532 0.445334 
173.078537 12.075106 
173.096146 0.284412 
173.132568 0.235003 
174.005814 1.497732 
174.081604 0.182478 
174.337463 0.192486 
174.909882 0.41523 
174.989975 1.143369 
175.0056 0.196462 
175.11145 0.263876 
175.148239 0.454281 
176.001251 0.851921 
176.868729 0.186803 
176.887573 0.166699 
176.989273 43.981915 
177.992508 0.932536 
178.946243 0.442144 
178.984283 1.414156 
179.000839 0.179466 
179.08548 0.950373 
179.954453 0.566432 
179.963699 5.599475 
180.100784 0.219141 
180.961502 0.826746 
180.981506 0.19236 
181.100815 0.287512 
182.962158 1.83109 
182.977341 6.177171 
183.116501 0.203943 
183.948761 0.959672 
183.967041 1.708131 
184.025497 0.214067 
184.95723 0.558492 
185.041855 2.03874 
185.114838 3.167239 
185.930923 16.668251 
185.961456 58.076508 
185.981613 0.262288 
186.021072 0.29131 
186.878571 0.25267 
186.927704 14.248895 
186.961975 4.80764 
187.005814 0.194158 
187.093872 0.421353 
187.92775 6.540699 
187.959396 1.261223 
187.976852 9.296345 
188.021515 1.179562 
188.927673 9.818579 
188.967056 0.290663 
189.005325 1.462823 
189.925735 0.466031 
189.976273 0.24113 
190.016449 0.484708 
190.92424 6.696221 
190.966187 5.109251 
191.001083 2.800648 
191.104568 0.167776 
191.178848 0.218732 
191.880173 0.241986 
191.964157 5.227199 
191.972443 13.152652 
192.920929 1.068812 
192.961624 86.263817 
192.998367 0.177963 
193.101151 6.11101 
193.963699 3.437913 
194.105148 0.236671 
194.115158 5.387458 
194.939621 0.960191 
194.962418 17.707359 
194.976959 0.24893 
194.999878 62.083206 
195.117233 1.6689 
195.936478 0.940189 
196.003174 2.033999 
196.957306 9.17246 
196.99588 2.65603 
197.004654 0.180386 
197.115494 0.227552 
197.132523 0.23056 
197.936279 1.194122 
197.964249 0.490149 
197.974274 26.716112 
198.020691 0.304221 
198.687332 0.215179 
198.954529 0.854535 
198.992828 0.193519 
199.148102 0.226089 
199.968796 0.245915 
200.038345 0.227621 
201.09082 1.950073 
201.110138 0.689877 
201.97757 0.216698 
203.052536 7.160749 
203.941147 1.429218 
203.971832 0.836791 
203.993195 1.751233 
204.96199 1.222376 
204.99794 4.608482 
205.969818 0.963161 
205.987625 61.490822 
206.926682 0.171645 
206.977554 12.391708 
206.988556 6.980509 
207.116287 0.178461 
207.986343 0.283843 
208.935608 0.199212 
208.976578 3.688866 
209.015228 0.45959 
209.095901 1.762042 
209.115738 0.208386 
209.132385 1.725395 
209.964355 1.057055 
209.974701 6.901071 
210.110077 1.10227 
210.972183 55.088509 
211.110962 0.215896 
211.148117 0.683218 
211.974518 1.969975 
212.949524 5.264435 
212.972656 37.416142 
213.01059 5.222668 
213.946442 4.049388 
214.967911 17.505739 
215.532303 0.798436 
215.544464 5.415159 
215.552795 1.255668 
215.563614 1.998837 
215.94722 13.448813 
215.972443 0.318127 
215.98468 6.357145 
216.964951 2.391804 
217.942551 4.985961 
219.174347 16.319029 
219.938873 0.225738 
220.131607 0.203292 
220.177505 0.920395 
221.132294 14.402418 
222.135742 1.491284 
222.898392 7.906156 
223.007355 0.228441 
223.980621 0.659499 
224.898834 0.542462 
224.987701 0.946012 
225.127579 0.461538 
225.163055 0.28773 
225.886185 0.266367 
226.988541 0.210711 
227.10614 0.405334 
227.141464 0.17327 
227.178009 0.198288 
227.900711 0.50129 
227.953812 0.923765 
229.051849 0.687082 
229.89592 15.248322 
230.966507 0.170043 
232.945572 0.187738 
232.959702 1.073069 
233.891006 4.15175 
233.957596 1.19245 
234.899063 1.377671 
235.008331 5.20752 
235.111938 0.187589 
236.072647 0.776695 
237.127182 3.332171 
237.164047 0.215345 
238.913239 1.119153 
238.967911 0.547662 
239.142776 12.695984 
239.179291 0.91862 
240.146576 1.465076 
240.21965 0.208511 
240.231964 4.741695 
240.268402 1.740116 
240.909088 14.94263 
241.909622 0.208123 
242.909332 5.594814 
244.062653 3.218813 
244.904922 2.449266 
244.993134 0.749247 
245.191513 0.193589 
245.910706 0.856365 
246.899002 2.11845 
247.045853 0.231595 
247.062393 0.287946 
247.906342 12.567521 
247.928589 0.184357 
247.980286 7.051652 
248.014435 0.169907 
248.879059 0.50145 
248.899261 0.246488 
248.936417 1.196466 
248.981339 0.283009 
249.906815 0.839454 
249.979767 0.244683 
250.894089 8.20747 
251.12532 19.535088 
251.974854 13.775899 
252.126038 0.799974 
252.892197 1.013473 
252.97879 0.236299 
253.012878 0.220267 
253.194489 0.292128 
254.976898 1.476606 
255.137741 5.077234 
255.173996 1.139549 
256.062653 3.593555 
257.190063 0.205791 
258.079102 0.243163 
258.899261 0.531951 
260.057861 1.971973 
261.059265 0.206199 
261.886169 0.212655 
262.056183 0.26056 
262.89386 0.260168 
262.913849 5.440302 
263.90036 1.193211 
263.913483 0.728693 
263.99649 1.413864 
264.053375 1.953699 
264.909058 41.784912 
265.122101 3.502407 
265.911102 2.851628 
265.939331 2.845504 
265.990997 53.465923 
266.465912 0.197622 
266.909515 11.464692 
266.991882 8.591562 
267.137665 4.342532 
267.174408 0.48814 
267.986755 1.651689 
268.263489 1.129346 
268.887848 0.436384 
268.904785 4.096911 
269.135925 3.246656 
269.189484 0.180394 
269.891815 0.214653 
270.07843 6.93794 
270.901001 0.743525 
271.205292 1.32653 
272.898468 0.424464 
272.93689 1.365067 
272.987274 1.259745 
273.077057 0.232883 
274.073456 10.481276 
274.893799 7.106935 
274.910736 0.170977 
274.969574 2.478583 
275.057648 0.2297 
275.243866 0.187956 
275.901917 7.747365 
275.971283 0.16494 
276.909454 6.972351 
277.054779 0.428777 
277.901703 0.236681 
278.925049 0.321734 
278.997955 3.890486 
279.896606 4.638097 
279.916321 1.205642 
280.924164 4.207685 
281.896179 4.111754 
281.91153 17.416954 
282.078918 1.107596 
282.115021 0.526867 
282.277893 0.240475 
282.903503 1.353988 
282.919403 36.625202 
283.063019 0.177558 
283.132599 6.280855 
283.168793 1.528606 
283.892212 0.828219 
283.921875 1.886442 
283.950439 0.176566 
284.094238 5.276898 
284.135559 0.187686 
284.919891 15.891738 
285.009613 5.899433 
285.148376 0.226339 
285.184326 9.294919 
285.816437 0.497179 
286.073761 0.496122 
286.092987 0.297394 
286.188293 0.696986 
286.823669 0.301699 
286.894379 4.040631 
286.914917 7.941042 
287.091187 0.205173 
287.831177 0.299644 
287.893616 0.2069 
287.914185 0.194113 
288.08905 12.313191 
288.908966 17.247143 
289.055023 0.306515 
289.073944 0.207443 
289.092194 0.641389 
289.911041 0.539615 
290.089447 0.242424 
290.909119 3.278882 
290.925964 2.538736 
290.947113 9.362075 
291.070587 3.546826 
291.8974 0.226824 
291.949921 0.268618 
292.904205 3.259159 
292.948151 0.23325 
292.980011 0.459903 
294.901672 0.239267 
295.065491 1.606208 
295.927979 0.902106 
297.906738 0.704782 
299.062622 0.436715 
300.089355 0.851842 
300.125732 1.795654 
300.150299 0.190921 
301.143829 1.58639 
301.180817 0.252806 
302.104828 6.83447 
303.194489 0.562335 
304.924164 11.787214 
305.15683 0.525809 
305.923096 6.86306 
306.919586 92.839432 
307.921906 10.486436 
308.9198 18.325994 
308.957123 1.074048 
309.081512 12.411401 
309.217072 0.725484 
309.920471 1.597491 
309.942505 0.490564 
310.084015 0.32847 
310.915436 7.894356 
311.081787 1.283216 
311.127075 5.388418 
311.828735 0.314738 
312.130768 0.193773 
312.838226 2.242269 
316.224457 0.768552 
316.90451 3.539763 
317.94989 0.483562 
318.919556 1.908903 
319.835968 1.955831 
320.935425 0.738682 
322.93454 2.303461 
323.146301 39.296467 
323.17984 0.31058 
323.933594 0.671878 
324.149414 7.069797 
324.325836 2.932742 
324.929993 19.684404 
325.198151 25.345785 
325.932617 1.186626 
326.201843 4.618612 
326.378113 1.573128 
326.89212 0.212229 
326.930359 7.31451 
327.077972 0.417594 
327.212433 0.159097 
327.249908 1.50633 
327.379028 0.244774 
327.825928 1.012797 
328.833191 2.422863 
328.92807 0.417596 
329.193359 6.061607 
329.230103 0.516994 
330.202454 0.946298 
331.134399 0.630835 
331.153107 0.299934 
331.172333 4.134161 
331.208405 13.208771 
332.219177 8.057954 
332.331909 1.71799 
333.116516 0.266126 
333.150787 2.895422 
333.187378 7.395868 
333.941132 0.157548 
334.192139 0.468002 
334.235229 9.689054 
334.843689 0.83822 
335.166351 4.519135 
335.217377 0.788734 
335.23822 0.955567 
336.250732 3.8414 
336.838684 7.259469 
337.181061 0.59382 
337.234344 100.0 
337.845734 2.4044 
338.238007 19.569954 
338.262634 0.524003 
339.214264 0.468567 
339.240662 1.555869 
340.393433 4.15667 
341.156738 5.479471 
341.192596 12.304723 
341.243469 0.475304 
341.266022 4.241016 
341.396088 0.241819 
341.915985 0.940921 
342.196808 0.806646 
342.997925 0.234538 
344.828491 2.133878 
344.976013 1.103355 
345.187469 1.899816 
345.22345 0.245136 
346.197693 0.192907 
347.167114 0.772463 
347.203522 6.498658 
348.21347 3.120532 
349.145782 0.491748 
349.182739 18.362047 
350.186401 1.637043 
350.229828 5.288329 
350.946228 3.356529 
351.251373 0.33311 
351.948486 0.310281 
352.24585 6.807443 
353.20813 2.594932 
353.229462 5.360231 
353.84079 0.215652 
354.849243 0.724944 
355.224396 2.585978 
355.281097 6.341787 
357.204224 0.230365 
357.260834 14.09465 
358.264862 1.91366 
358.312866 0.288822 
358.843719 0.201827 
359.203369 0.490144 
359.219452 0.19273 
360.362579 0.972019 
360.838043 6.193524 
361.18222 0.307696 
361.217834 0.336461 
362.228424 0.238723 
362.302063 0.232982 
363.161957 9.426263 
363.197296 0.320704 
364.208832 0.866111 
364.246582 3.906245 
365.104919 5.389251 
366.224731 2.22405 
366.261169 1.30824 
367.841278 0.320045 
368.424591 33.843372 
369.130371 0.599509 
369.167419 0.223479 
369.224945 0.589838 
369.297668 1.768642 
369.428314 8.742358 
369.836548 5.170292 
370.430664 0.234332 
371.183319 6.503891 
371.218536 3.435249 
371.240479 31.726595 
371.279266 0.250115 
372.244049 3.662925 
378.849548 1.043192 
387.847137 0.364609 
END IONS

