BEGIN IONS
PEPMASS=499.28
CHARGE=1+
COMPOUNDNAME=(3E,5S,7R,8R,11E,13S,15R,16R)-3,5,7,11,13,15-hexamethyl-8,16-bis(1,3-oxazol-5-ylmethyl)-1,9-dioxacyclohexadeca-3,11-diene-2,10-dione
LIBRARYQUALITY=3
SMILES=N/A
INCHIKEY=LAJRJVDLKYGLOO-HLRFMGGZSA-N
INCHI=InChI=1S/C28H38N2O6/c1-17-7-19(3)25(11-23-13-29-15-33-23)35-28(32)22(6)10-18(2)8-20(4)26(12-24-14-30-16-34-24)36-27(31)21(5)9-17/h9-10,13-20,25-26H,7-8,11-12H2,1-6H3/b21-9+,22-10+/t17-,18-,19+,20+,25+,26+/m0/s1
MSLEVEL=2
SOURCE_INSTRUMENT=N/A-ESI-QFT
FILENAME=library_mgf.mgf
SEQ=*..*
IONMODE=positive
ORGANISM=MONA
NAME=(3E,5S,7R,8R,11E,13S,15R,16R)-3,5,7,11,13,15-hexamethyl-8,16-bis(1,3-oxazol-5-ylmethyl)-1,9-dioxacyclohexadeca-3,11-diene-2,10-dione [M+H]+
PI=MoNA
DATACOLLECTOR=MoNA:VF-NPL-QEHF019219
PUBMED=N/A
SUBMITUSER=mwang87
TAGS=
SPECTRUMID=CCMSLIB00004710282
SCANS=19219
50.164707 0.035525 
50.945065 0.044616 
51.104927 0.03196 
51.651047 0.042024 
51.690289 0.026462 
51.898479 0.033566 
52.204754 0.042587 
52.43964 0.017252 
52.843185 0.033574 
52.867638 0.020563 
53.730595 0.014863 
54.078659 0.031889 
54.427761 0.033393 
54.8325 0.041399 
55.054489 0.579716 
55.638252 0.01791 
56.049709 0.107448 
56.083431 0.013362 
56.885662 0.024416 
57.033695 7.804355 
57.070061 0.122692 
58.03743 0.032399 
58.999126 0.04029 
59.049316 100.0 
59.727913 0.037966 
60.052666 1.651407 
61.713997 0.016468 
62.06604 0.031443 
62.652237 0.036235 
65.038803 0.020408 
65.309425 0.039245 
65.328423 0.029796 
66.11795 0.04363 
67.054276 3.307673 
68.049385 0.054041 
68.536865 0.02791 
69.033463 2.246766 
69.06987 3.395675 
69.071754 0.021011 
69.088326 0.033286 
70.028725 0.229528 
70.065178 0.023708 
70.418076 0.018566 
70.767197 0.032968 
70.821182 0.032684 
71.049171 0.108573 
71.329277 0.021788 
71.853539 0.016635 
73.846329 0.018528 
75.037415 0.014092 
75.818954 0.041886 
76.715546 0.011546 
77.078339 0.020087 
77.869453 0.043268 
77.88134 0.027498 
78.295113 0.02137 
78.681168 0.043478 
78.738388 0.034629 
79.054176 1.445655 
79.682137 0.026463 
80.0494 0.449291 
81.069794 5.165907 
81.753403 0.017819 
81.821358 0.037703 
81.89608 0.04567 
82.028664 16.978821 
82.065018 0.407593 
83.032021 0.263574 
83.049034 1.121095 
83.085442 0.827794 
83.514999 0.033499 
84.044327 5.228758 
84.972527 0.042462 
85.064651 0.478103 
86.212807 0.029792 
86.911789 0.050055 
86.965881 0.014973 
87.043945 0.030322 
88.756584 0.016097 
89.240219 0.028375 
91.054192 1.402098 
91.740845 0.036064 
92.012733 0.04057 
92.692299 0.03876 
92.930008 0.020544 
93.069786 6.961157 
93.248306 0.036002 
94.028542 0.017497 
94.065025 4.547139 
94.073105 0.074076 
95.049057 5.524804 
95.085426 26.550383 
96.044258 16.039127 
96.080704 0.666874 
96.088737 1.60539 
96.350677 0.048709 
97.047729 0.399435 
97.064705 1.749035 
98.059937 0.655051 
98.068321 0.044471 
99.080345 1.799796 
99.189964 0.042941 
99.220688 0.029291 
99.846138 0.029087 
100.664871 0.042529 
101.096031 0.301348 
102.053787 0.014428 
102.993965 0.046844 
103.117554 0.033576 
103.146172 0.03999 
105.069771 2.49629 
106.20472 0.025435 
106.433296 0.012976 
107.048973 0.40761 
107.081497 0.22781 
107.085403 18.841522 
108.044212 0.795651 
108.08062 1.343782 
108.088722 1.119936 
109.064674 7.260525 
109.101082 17.309801 
109.269066 0.032075 
109.503693 0.014981 
109.710648 0.04661 
110.059906 12.814 
110.096321 0.298003 
110.104393 1.02318 
111.044052 0.171826 
111.063187 0.516867 
111.076546 0.024864 
111.080269 2.848161 
111.116692 1.544515 
111.329994 0.045924 
111.52829 0.012226 
112.416466 0.020372 
112.851547 0.044447 
113.05954 6.499728 
115.075233 2.167517 
115.208229 0.042567 
115.393211 0.019109 
115.444977 0.051623 
115.89785 0.034173 
116.347618 0.048713 
116.839302 0.020899 
117.069786 2.429839 
117.090874 19.210085 
117.117508 0.040416 
117.726036 0.04765 
118.094276 0.33477 
119.085449 5.704836 
120.044342 1.081278 
120.08065 0.714346 
120.088776 0.217786 
120.416992 0.038065 
120.686806 0.018935 
121.064728 2.099525 
121.101021 51.860226 
121.41684 0.033164 
122.023476 0.534118 
122.059906 32.225842 
122.067322 0.043014 
122.104347 4.336833 
122.108856 3.214612 
122.814453 0.036283 
123.063316 2.330744 
123.080261 3.074913 
123.112228 0.06108 
123.116692 1.022089 
124.039398 0.014208 
124.075592 3.391753 
125.095901 0.125279 
125.881599 0.037667 
126.054947 0.09677 
126.248482 0.028996 
127.075867 0.034895 
128.327164 0.040284 
128.566223 0.012605 
128.824875 0.014057 
131.085358 3.359525 
132.080826 0.019343 
133.02446 0.019771 
133.100937 6.865795 
133.82225 0.016992 
134.059814 9.922807 
134.096268 0.746763 
134.104279 0.266088 
134.915497 0.03136 
135.063095 0.392088 
135.080368 2.708686 
135.116623 20.246847 
136.039185 0.228839 
136.075577 10.771049 
136.120041 1.804592 
137.078751 0.331159 
137.095871 7.035205 
138.054871 0.734573 
138.091217 18.856453 
138.100021 0.041018 
138.851501 0.022934 
139.075333 0.088028 
139.094559 1.176885 
139.111664 0.382576 
139.817093 0.035213 
140.539291 0.031015 
143.085587 0.320024 
144.08078 0.097977 
144.093292 0.58898 
145.101013 3.008213 
146.096313 0.455857 
146.103958 0.057941 
146.691879 0.045527 
147.080353 0.200768 
147.116653 1.696882 
148.075455 10.265824 
148.111923 0.425273 
148.806503 0.022186 
149.078857 0.471735 
149.095947 7.240915 
149.132263 10.599633 
150.091248 3.962403 
150.098434 0.254397 
150.135712 0.818194 
150.341263 0.027659 
150.737045 0.015848 
151.094666 0.080101 
151.11174 0.06811 
153.127106 0.130672 
153.425461 0.027259 
156.599442 0.046933 
157.101089 0.398987 
158.134979 0.015922 
159.080368 0.218056 
159.116516 41.171597 
160.0755 0.063451 
160.112015 1.401755 
160.119995 4.699413 
161.095856 1.393165 
161.119965 0.311735 
161.132294 1.183599 
162.090958 5.09796 
162.127487 1.441018 
163.023178 0.037342 
163.094666 0.051798 
163.11142 10.049831 
164.107437 0.026552 
164.114883 0.763075 
165.350327 0.042203 
167.106491 2.610211 
168.065231 0.013363 
168.109192 0.01306 
168.151489 0.045154 
169.100983 1.163422 
171.104507 0.070093 
171.116913 0.015337 
172.075439 0.352921 
172.088089 0.313893 
172.548782 0.014578 
174.091095 2.265298 
174.33429 0.042053 
175.111588 1.149128 
175.132843 1.406114 
175.190399 0.012337 
175.507477 0.039309 
176.070389 0.126912 
176.106689 6.180262 
176.143127 6.471927 
177.110031 0.285662 
177.127106 15.509856 
177.146515 0.418287 
178.122437 0.112361 
178.1306 1.558 
181.12381 0.04855 
182.080933 2.612058 
182.176636 0.028256 
182.949936 0.026425 
183.052185 0.057059 
183.622803 0.018612 
184.059296 0.022905 
185.124054 0.0452 
185.135056 0.046909 
186.076035 0.036241 
186.127502 3.023425 
187.111526 11.11787 
187.131119 0.133701 
188.106644 0.628607 
188.115005 0.995821 
190.085724 0.194949 
190.122391 26.604288 
191.125961 2.918185 
194.089813 0.013565 
194.154251 0.12364 
194.584595 0.03723 
196.44371 0.017799 
198.075821 27.052668 
198.566437 0.015113 
198.939835 0.047541 
199.079315 2.762361 
202.243439 0.050737 
204.138062 59.308479 
205.122421 3.590139 
205.141449 7.661251 
206.144409 0.023134 
206.153854 0.449362 
208.097794 0.014851 
208.579041 0.019788 
210.075928 0.596472 
212.091476 2.603254 
213.095261 0.173954 
213.130768 3.378935 
213.144516 1.105837 
214.122284 6.992531 
215.12587 0.563975 
216.508377 0.033789 
220.142838 0.046156 
222.112244 0.017181 
222.148651 1.536632 
224.127701 2.895498 
224.592163 0.025539 
225.131348 0.136162 
231.148819 0.021079 
232.132935 34.724915 
233.136414 4.74553 
236.12883 0.025732 
237.099976 0.045853 
238.106461 0.027033 
248.128387 0.103534 
249.109619 0.69292 
250.111862 0.016737 
250.143387 24.000477 
250.821609 0.019854 
251.146881 3.663149 
252.122437 3.42094 
253.126465 0.234975 
254.103516 0.0175 
256.118347 0.025456 
262.131012 0.038748 
264.122772 0.211197 
270.133423 0.600522 
272.125641 0.058715 
276.122559 0.01429 
276.248688 0.033377 
277.332062 0.013349 
278.139069 0.02333 
278.924042 0.021338 
280.117645 0.016987 
285.707062 0.024059 
287.714233 0.044221 
287.877533 0.042794 
289.342773 0.050742 
294.327301 0.050933 
304.155762 0.093718 
304.176819 0.030524 
304.186279 0.052763 
314.451935 0.044002 
319.543121 0.030359 
323.927643 0.019744 
325.372894 0.05181 
326.557129 0.042744 
355.923004 0.053764 
356.483734 0.017373 
360.103119 0.04693 
363.960571 0.030872 
366.546631 0.043667 
370.128265 0.022522 
382.162872 0.138805 
384.084259 0.017392 
386.9039 0.036574 
387.739807 0.042226 
398.23526 0.020028 
398.50589 0.028654 
400.212067 0.037056 
401.204254 0.02235 
414.17923 0.036595 
432.232727 0.023785 
439.715363 0.048225 
447.346863 0.163156 
454.256226 0.230016 
455.984772 0.016615 
470.214508 0.047735 
485.025146 0.03884 
492.09668 0.017999 
495.119354 0.025469 
498.242188 2.484877 
498.270813 1.423972 
499.24527 0.74019 
500.259033 0.350232 
500.354645 1.434741 
501.304016 0.020946 
501.363281 0.037275 
506.921143 0.020782 
517.198975 0.024677 
END IONS

