BEGIN IONS
PEPMASS=1072.51
CHARGE=1+
COMPOUNDNAME=Tomatine
LIBRARYQUALITY=3
SMILES=N/A
INCHIKEY=REJLGAUYTKNVJM-SGXCCWNXSA-N
INCHI=InChI=1S/C50H83NO21/c1-20-7-12-50(51-15-20)21(2)32-28(72-50)14-26-24-6-5-22-13-23(8-10-48(22,3)25(24)9-11-49(26,32)4)65-45-40(63)37(60)41(31(18-54)68-45)69-47-43(71-46-39(62)36(59)34(57)29(16-52)66-46)42(35(58)30(17-53)67-47)70-44-38(61)33(56)27(55)19-64-44/h20-47,51-63H,5-19H2,1-4H3/t20-,21-,22-,23-,24+,25-,26-,27+,28-,29+,30+,31+,32-,33-,34+,35+,36-,37+,38+,39+,40+,41-,42-,43+,44-,45+,46-,47-,48-,49-,50-/m0/s1
MSLEVEL=2
SOURCE_INSTRUMENT=N/A-ESI-QFT
FILENAME=library_mgf.mgf
SEQ=*..*
IONMODE=positive
ORGANISM=MONA
NAME=Tomatine [M+K]+
PI=MoNA
DATACOLLECTOR=MoNA:VF-NPL-QEHF026715
PUBMED=N/A
SUBMITUSER=mwang87
TAGS=
SPECTRUMID=CCMSLIB00004719770
SCANS=26715
74.899117 0.277922 
75.621635 0.252448 
77.038368 0.294119 
77.329575 0.319075 
79.054237 34.653019 
80.049438 7.125278 
80.057678 0.314357 
81.018661 1.131304 
81.033516 24.351294 
81.067558 0.369084 
81.069908 30.071188 
81.220222 0.311798 
81.413589 0.269225 
81.784767 0.272717 
82.065155 3.442422 
82.07338 0.365839 
83.01268 0.367846 
83.049271 1.024345 
83.085625 1.012942 
84.080803 10.823829 
84.959747 0.753703 
85.028427 100.0 
85.031181 0.692194 
85.680611 0.270946 
86.031693 2.792852 
87.044113 3.986184 
89.240799 0.26702 
90.587143 0.268083 
90.770714 0.251285 
91.039055 2.94378 
91.05423 43.847675 
91.05735 15.24662 
91.865677 0.283006 
92.057533 2.354505 
93.069946 32.134697 
94.026398 0.900108 
94.06517 6.797694 
94.073441 0.406551 
94.562157 0.329903 
95.049103 11.730425 
95.072937 3.365771 
95.085503 18.406244 
95.402885 0.271011 
96.080742 7.102944 
96.252602 0.255541 
97.02845 70.575935 
97.934326 0.261942 
98.031776 2.677714 
98.096405 5.418972 
98.914192 0.295075 
98.975349 7.417918 
99.044052 5.245158 
99.468468 0.288326 
100.075699 2.323915 
101.023331 0.348032 
102.440041 0.263408 
103.054184 0.964113 
104.037064 0.282818 
104.101807 0.298209 
104.992218 0.597103 
105.044739 1.195921 
105.069923 69.289955 
105.073555 0.390238 
106.065567 0.616414 
106.073227 5.354414 
107.085571 25.417383 
107.525146 0.319225 
108.080681 3.467808 
108.093597 0.292118 
108.958076 0.317645 
109.028374 12.872596 
109.06469 1.558962 
109.088547 2.95043 
109.101173 12.613055 
110.096481 2.178502 
110.975304 0.629877 
112.075722 0.295971 
112.744995 0.296107 
113.040802 0.290753 
113.573738 0.306594 
114.091293 12.140658 
114.161484 0.282953 
114.670441 0.33159 
115.03894 3.096226 
115.054115 2.04338 
115.513054 0.290408 
116.985794 6.412084 
117.069786 14.88296 
117.301476 0.285361 
118.615891 0.28993 
119.085571 33.675674 
120.080658 1.637101 
120.088722 1.939012 
120.201271 0.259932 
120.357559 0.280137 
121.089012 0.345428 
121.101151 8.631438 
121.468544 0.286789 
122.096298 2.018189 
123.116837 0.734661 
123.448402 0.2983 
124.112122 28.279512 
125.115341 0.619043 
126.127739 32.775028 
127.038933 10.5052 
127.131012 1.810823 
128.061996 0.675855 
128.070541 3.90085 
128.985794 2.690595 
129.064774 0.321894 
129.069748 7.212796 
130.077744 0.752741 
131.085464 20.878368 
131.275116 0.278065 
131.774872 0.288626 
133.10112 18.679796 
134.096527 0.328236 
134.104568 0.367465 
134.996231 0.575525 
135.116898 2.816412 
136.111938 0.883479 
138.127686 2.026134 
140.10704 0.310826 
142.077698 1.773033 
143.001709 0.879261 
143.085541 7.025211 
143.091736 0.350944 
145.101135 23.750223 
146.104248 0.358096 
146.996399 3.461469 
147.116837 30.410767 
147.718857 0.287106 
148.112015 4.787315 
148.120071 1.676596 
149.132492 2.172283 
150.091309 1.594894 
150.12764 4.749201 
154.086151 0.335769 
157.035019 0.292321 
157.101166 8.670646 
158.996429 0.314596 
159.116776 22.559801 
160.120102 0.666065 
161.01207 0.709139 
161.132462 72.425682 
162.034271 0.309999 
162.127701 10.241823 
162.13559 6.819405 
162.515305 0.305309 
162.991226 0.299584 
164.143356 4.845214 
166.964996 0.298843 
167.013611 0.278331 
170.671494 0.311311 
170.997009 0.336684 
171.116974 3.946127 
171.160461 0.326063 
172.124863 0.277607 
173.132462 10.77325 
175.148422 0.364409 
176.143356 1.214369 
176.826309 0.319805 
177.006851 0.358384 
180.888184 0.743871 
182.976028 0.303412 
183.116547 0.382973 
185.041962 1.288314 
185.132431 2.254523 
187.147659 0.63479 
188.142426 0.306425 
194.977051 0.458901 
197.167511 0.299762 
197.937057 0.306522 
199.147934 1.336584 
202.407333 0.278566 
203.053085 0.301554 
211.147415 0.344911 
213.164093 0.331453 
215.117661 0.333889 
218.976395 0.413701 
219.017822 2.652695 
219.547913 0.812246 
219.559372 4.03427 
220.287109 0.307518 
220.670319 0.29044 
225.04277 3.970545 
227.022156 0.622838 
234.990051 1.072178 
236.990158 1.0544 
237.028152 5.648569 
237.23085 0.330935 
237.988693 0.991277 
250.036942 0.303896 
255.000916 1.07886 
255.210449 6.277481 
256.213287 0.325219 
265.154236 0.317741 
266.998413 1.474844 
268.977936 2.404957 
273.221771 0.341713 
292.336365 0.313911 
292.750275 0.301034 
321.118652 0.32601 
347.095093 1.93234 
348.124939 0.335187 
356.292542 0.341387 
371.024872 0.27997 
380.33075 3.780593 
391.215546 0.996463 
396.325226 5.834094 
397.328461 0.425358 
398.341248 19.249619 
399.344543 4.237955 
402.850555 0.275509 
406.521698 0.323292 
409.22699 0.448562 
423.822296 0.316687 
424.963074 0.277341 
447.346436 1.546489 
452.771118 0.325441 
461.359711 0.295502 
467.135803 0.416321 
486.290039 0.279382 
488.300262 0.319527 
504.893555 0.323976 
511.580017 0.29368 
537.438904 0.303305 
544.484375 0.321712 
556.324463 0.301693 
558.381348 0.623301 
559.380371 0.336169 
560.392212 5.118159 
560.648987 0.312873 
561.397583 0.873912 
563.566406 0.312932 
576.589233 0.308016 
671.783569 0.287608 
687.226624 0.273426 
731.231689 0.31272 
743.855164 0.304453 
783.097961 0.296907 
805.93396 0.339324 
906.576782 0.331116 
946.133911 0.292195 
954.210022 0.328116 
955.331116 0.340359 
960.350647 0.343821 
972.700256 0.331058 
1008.312683 0.351994 
1027.789551 0.333392 
END IONS

