BEGIN IONS
PEPMASS=319.119
CHARGE=1+
COMPOUNDNAME=MoNA:508762 Mycophenolic (Mycophenolate) [M+H]
LIBRARYQUALITY=3
SMILES=N/A
INCHIKEY=HPNSFSBZBAHARI-RUDMXATFSA-N
INCHI=InChI=1S/C17H20O6/c1-9(5-7-13(18)19)4-6-11-15(20)14-12(8-23-17(14)21)10(2)16(11)22-3/h4,20H,5-8H2,1-3H3,(H,18,19)/b9-4+
MSLEVEL=2
SOURCE_INSTRUMENT=LC-ESI-ITFT-LC-ESI-ITFT
FILENAME=output_mgf.mgf
SEQ=*..*
IONMODE=
ORGANISM=MONA
NAME=MoNA:508762 Mycophenolic (Mycophenolate) [M+H] [M-H]-
PI=MoNA
DATACOLLECTOR=MoNA
PUBMED=N/A
SUBMITUSER=mwang87
TAGS=
SPECTRUMID=CCMSLIB00000564664
SCANS=1916
133.0659 14.837925 
161.0609 20.078251 
173.0607 41.92055 
187.0762 28.452934 
191.0352 100.0 
203.0354 37.660681 
205.0508 25.654228 
245.0826 12.722829 
END IONS

