BEGIN IONS
PEPMASS=427.393
CHARGE=1+
COMPOUNDNAME=(1R,3aR,5aR,5bR,9S,11aR)-3a,5a,5b,8,8,11a-hexamethyl-1-prop-1-en-2-yl-1,2,3,4,5,6,7,7a,9,10,11,11b,12,13,13a,13b-hexadecahydrocyclopenta[a]chrysen-9-ol
LIBRARYQUALITY=3
SMILES=N/A
INCHIKEY=MQYXUWHLBZFQQO-KIIHVYTKSA-N
INCHI=InChI=1S/C30H50O/c1-19(2)20-11-14-27(5)17-18-29(7)21(25(20)27)9-10-23-28(6)15-13-24(31)26(3,4)22(28)12-16-30(23,29)8/h20-25,31H,1,9-18H2,2-8H3/t20-,21?,22?,23?,24-,25?,27+,28-,29+,30+/m0/s1
MSLEVEL=2
SOURCE_INSTRUMENT=N/A-ESI-QFT
FILENAME=library_mgf.mgf
SEQ=*..*
IONMODE=positive
ORGANISM=MONA
NAME=(1R,3aR,5aR,5bR,9S,11aR)-3a,5a,5b,8,8,11a-hexamethyl-1-prop-1-en-2-yl-1,2,3,4,5,6,7,7a,9,10,11,11b,12,13,13a,13b-hexadecahydrocyclopenta[a]chrysen-9-ol [M+H]+
PI=MoNA
DATACOLLECTOR=MoNA:VF-NPL-QEHF009290
PUBMED=N/A
SUBMITUSER=mwang87
TAGS=
SPECTRUMID=CCMSLIB00004700353
SCANS=9290
50.51524 0.11441 
51.602764 0.114551 
51.67511 0.102897 
51.695614 0.09788 
51.771313 0.120416 
51.784569 0.106361 
52.058125 0.109797 
52.238281 0.112634 
52.524078 0.106277 
52.877956 0.113306 
53.039368 0.296599 
53.350056 0.12391 
53.624084 0.102536 
53.985378 0.096611 
54.293903 0.109708 
54.872486 0.100596 
54.997372 0.101155 
55.018658 0.28855 
55.05508 13.271233 
56.050304 0.672209 
56.161884 0.109177 
56.854218 0.126839 
56.965706 0.141988 
57.034306 3.011448 
57.070713 36.476227 
57.841469 0.113599 
58.065945 5.022148 
58.074024 0.450348 
58.082226 0.105509 
58.434139 0.104094 
58.705894 0.119052 
59.049965 49.057175 
59.061222 0.978438 
59.242977 0.094104 
59.388672 0.102248 
59.408619 0.112378 
59.433388 0.125559 
59.443111 0.121649 
59.721481 0.121872 
59.947151 0.110508 
59.983566 0.113791 
60.034538 0.110652 
60.045197 1.648085 
60.053326 0.449537 
60.522217 0.108901 
60.910603 0.121374 
61.01144 10.550671 
61.597118 0.118303 
61.797482 0.106299 
62.019279 19.223173 
62.487282 0.108248 
62.64838 0.125838 
62.940895 0.10559 
62.982525 18.627151 
62.984261 0.184346 
62.985691 0.10232 
62.990681 0.129267 
63.40649 0.118302 
63.763828 0.114074 
63.765785 0.103727 
63.998417 0.125844 
64.015236 0.120346 
64.538765 0.103758 
64.63945 0.104339 
65.37645 0.108578 
66.209076 0.106883 
67.055038 14.638672 
68.005913 0.104954 
68.058144 0.136638 
68.229668 0.119633 
68.551712 0.100965 
69.034241 0.128304 
69.068787 0.190842 
69.070648 24.156872 
69.363007 0.126555 
70.065865 1.211274 
70.07402 0.140056 
70.656242 0.112117 
70.99585 0.111059 
71.049896 32.8759 
71.086273 21.871325 
71.088387 0.171158 
71.616539 0.105074 
71.930511 0.123456 
71.982979 0.118049 
72.081551 0.684001 
72.08979 0.164085 
72.119576 0.121449 
72.382996 0.126475 
73.029083 1.940249 
73.047562 21.723949 
73.065483 3.806727 
73.75679 0.14241 
73.853302 0.100185 
73.895874 0.10668 
74.060783 0.127018 
74.097229 0.102641 
75.02697 0.439448 
76.076469 0.139217 
76.096893 0.119844 
76.234444 0.099704 
76.98983 0.102602 
77.565598 0.105497 
77.728058 0.104457 
78.244896 0.121278 
78.731812 0.095848 
78.919334 0.10118 
78.956375 4.514269 
78.959038 0.307187 
78.967621 0.118057 
79.021927 24.25844 
79.054893 4.582881 
79.618301 0.124408 
80.189049 0.127834 
80.645859 0.107026 
81.017685 1.505276 
81.070564 27.771343 
81.187462 0.118812 
82.066177 0.108096 
82.073799 0.34377 
82.734421 0.140426 
83.049767 1.215126 
83.06105 3.797568 
83.086197 17.101904 
84.045013 1.953308 
84.081253 0.156786 
84.089417 0.166227 
84.284874 0.099756 
85.029068 1.342393 
85.065468 3.848269 
85.101868 13.712231 
85.473808 0.109809 
86.060654 0.180138 
86.096939 0.275514 
87.044693 9.101101 
89.060333 19.359955 
89.784904 0.125245 
89.929855 0.116903 
89.964188 0.427013 
90.174019 0.112045 
90.680557 0.116341 
90.980629 0.653364 
91.055023 4.58946 
91.057953 71.743088 
91.8507 0.109422 
91.964607 2.426691 
92.682571 0.114488 
92.779358 0.139111 
92.983253 0.756248 
93.037323 2.863499 
93.07048 14.753061 
94.073784 0.363213 
94.126495 0.125441 
94.493645 0.096231 
94.93045 0.177985 
94.944031 0.095984 
95.049759 1.112393 
95.086082 35.065689 
95.23629 0.107285 
96.081619 0.117904 
96.089417 1.760714 
96.536369 0.115006 
96.564445 0.116638 
96.592911 0.106957 
97.065331 3.918545 
97.101715 11.349058 
98.048576 0.121207 
98.060814 0.151664 
98.088211 0.116903 
98.09697 2.079404 
98.684502 0.129438 
98.975937 1.502267 
99.044586 1.79158 
99.080696 0.651925 
100.076256 0.536622 
100.527634 0.102156 
101.003677 40.773811 
101.060234 14.410951 
101.862366 0.13947 
102.055489 0.121755 
102.139191 0.123953 
102.148537 0.11547 
102.507553 0.133399 
102.524872 0.118766 
102.999252 0.126825 
103.039467 2.066302 
103.075867 1.122013 
104.823517 0.127634 
105.037056 0.114699 
105.070251 6.580778 
105.073769 2.340246 
105.170235 0.119197 
105.28334 0.154042 
107.085991 18.669859 
107.321564 0.106535 
107.638588 0.113404 
108.089256 0.620438 
108.99099 2.079142 
109.06514 0.909284 
109.101639 21.37122 
109.449631 0.115568 
109.781029 0.12872 
109.988876 0.4166 
110.096832 0.138977 
110.104965 1.393584 
111.04435 0.511246 
111.080849 3.000996 
111.117226 2.444451 
111.385704 0.108746 
111.978233 0.107804 
112.009361 0.112084 
112.377518 0.125057 
114.091766 0.327901 
114.103859 0.133558 
114.656189 0.121094 
115.05658 0.739468 
115.075745 1.051919 
115.366714 0.11652 
116.060936 0.121255 
116.070915 1.568772 
116.986313 1.819306 
117.054932 2.101267 
117.070343 0.11228 
118.259575 0.108357 
118.722443 0.141787 
119.085861 13.953729 
119.114067 0.122204 
120.088882 0.260335 
121.028488 0.260191 
121.065063 7.263307 
121.101471 17.6542 
121.957191 2.259167 
122.104836 0.698789 
122.954887 0.284342 
123.080727 1.973485 
123.117126 9.182886 
123.917213 0.11847 
124.120094 0.158467 
124.964531 0.763893 
125.059692 0.112809 
125.096436 1.402056 
125.50457 0.118912 
125.935974 2.499885 
126.943802 3.203818 
128.939728 0.182219 
128.963898 0.270641 
129.055008 0.216453 
130.049957 0.397688 
130.159058 0.99714 
130.177155 0.128529 
130.979523 0.623119 
131.070282 0.735654 
131.085709 2.819076 
131.980209 0.145562 
133.030228 0.113916 
133.064987 0.11784 
133.086075 0.567512 
133.101334 11.430853 
134.104721 0.160408 
134.972412 7.995222 
134.978638 0.268424 
134.996704 1.323221 
135.080505 1.65362 
135.116974 14.458182 
136.12027 0.524418 
137.096161 2.544476 
137.132553 2.301386 
139.016464 0.116508 
139.112122 0.139619 
140.959274 1.57836 
142.046005 0.11709 
142.91777 0.854757 
142.938675 0.587978 
143.085815 0.611373 
144.864853 0.123925 
145.101273 7.171123 
145.247559 0.118494 
145.585831 0.155276 
146.974518 6.747511 
147.080566 0.890841 
147.116943 9.981657 
147.153 0.110789 
147.97464 2.315479 
148.120331 0.270857 
148.925873 4.643189 
148.972595 0.760001 
149.045059 8.279358 
149.071335 0.981465 
149.096298 0.579227 
149.132751 4.954911 
149.925232 0.149644 
150.921997 0.38868 
150.949677 1.700159 
151.112305 0.260082 
151.147705 0.17994 
152.136932 0.128651 
152.951706 0.148446 
152.959442 0.613316 
152.989395 0.960756 
153.127838 0.119725 
153.551178 0.122336 
153.949158 0.133642 
154.947006 0.125679 
155.943573 0.107558 
156.138443 3.890879 
156.9366 1.176582 
156.9543 3.803176 
157.100937 0.329985 
158.903915 1.500318 
158.974258 0.157953 
158.993729 1.635154 
159.117004 6.202505 
159.994934 0.140561 
160.288483 0.151755 
160.990524 4.451322 
161.096115 0.49921 
161.132553 7.243123 
161.990204 1.153437 
162.09346 0.121328 
162.135742 0.319184 
163.111877 0.195517 
163.148285 2.514594 
163.999115 0.124043 
164.899582 0.583385 
164.920654 53.61327 
165.05481 1.025053 
165.127228 0.177515 
165.920105 0.138679 
166.916382 1.63539 
167.055557 34.760651 
169.825134 0.127042 
171.117111 0.928179 
171.959869 0.123247 
172.63916 0.122712 
172.931152 0.918478 
173.132599 4.714752 
174.136139 0.335858 
175.111877 1.127097 
175.14827 3.401479 
176.914291 5.522996 
176.967728 0.123733 
177.12709 0.772912 
177.163849 1.104347 
178.16832 0.121622 
178.993225 0.366391 
179.143036 0.160718 
179.845276 0.126752 
180.242142 0.114302 
180.894531 19.724703 
182.891647 0.665995 
183.02858 0.122504 
183.313812 0.128599 
185.13269 0.629712 
185.95192 0.160826 
186.967636 0.137646 
187.1483 4.09467 
187.734619 0.108393 
187.952225 1.668233 
188.918121 1.82465 
188.950073 1.868105 
188.974045 0.120714 
189.163925 9.841465 
190.167358 0.265119 
191.000519 0.155969 
191.143097 0.441548 
191.179352 0.487347 
192.945496 1.097258 
192.962479 0.145941 
194.92482 20.847349 
195.171387 0.122703 
196.868668 2.032128 
197.097656 0.11817 
199.148239 0.612879 
201.127579 0.159771 
201.164078 1.414583 
202.167923 0.189425 
203.143356 2.797376 
203.179718 1.139336 
203.325699 0.114174 
204.220139 0.112929 
204.913223 6.111945 
204.962265 0.619526 
205.159042 5.095051 
205.962921 0.800961 
205.987701 0.168166 
206.959961 0.135588 
206.97789 12.563413 
207.029236 0.156483 
207.067184 0.11713 
207.174637 1.484577 
208.940613 0.335397 
209.206741 0.10949 
210.973145 0.150065 
212.223465 0.117306 
212.924896 0.165161 
212.93544 9.227558 
213.162811 0.126977 
213.774033 13.474049 
215.128052 0.984986 
215.179382 0.467812 
219.1745 5.793365 
220.177399 0.143032 
220.887054 7.092447 
221.158569 0.150013 
221.957916 0.114979 
222.898987 0.294193 
223.148056 0.189915 
225.043152 5.674177 
226.216263 0.153152 
226.951553 0.156494 
228.889374 0.58306 
228.900726 0.690997 
229.159073 0.128456 
229.195114 0.122881 
230.119858 0.122415 
232.884277 0.207918 
233.153946 0.274199 
233.891388 2.437244 
234.891525 1.245178 
235.901016 0.138896 
236.91713 0.831169 
237.97525 0.120812 
238.967697 1.516499 
239.882263 1.437902 
240.910019 0.875385 
240.939438 0.136073 
240.950928 0.416177 
242.943954 0.184619 
243.174973 0.136709 
245.25209 0.145965 
245.883514 0.14975 
246.911118 1.011089 
246.926773 0.107207 
248.806274 0.111398 
248.937408 0.147891 
250.894287 2.043924 
251.893967 0.431041 
253.236923 0.138829 
253.539642 0.120444 
254.197815 0.119173 
254.927948 14.045259 
255.210373 0.155852 
256.923126 0.501621 
257.892792 0.32907 
262.89447 0.232132 
263.894592 0.153145 
267.814362 0.121574 
268.906799 0.154492 
269.8927 3.986314 
270.900024 1.015053 
271.15802 0.117154 
271.90097 0.305497 
272.938385 2.75378 
273.906952 0.472618 
274.112305 0.141135 
274.894257 2.608936 
275.896362 3.04164 
276.902954 0.535856 
281.044495 7.338231 
283.024445 0.309274 
286.894562 0.28805 
286.918121 0.135842 
287.895935 0.596618 
288.101257 0.132595 
288.952789 0.128554 
289.950684 0.141238 
290.909485 0.114252 
290.925568 0.127831 
290.947632 1.155933 
291.925476 0.265034 
296.245544 0.123448 
297.039398 6.042124 
302.037018 0.11937 
303.805756 0.119269 
304.9104 0.121164 
305.907501 0.252877 
306.877625 0.312941 
306.910278 0.228341 
307.060211 1.962 
309.03949 52.920113 
309.27887 4.558277 
309.936249 0.14352 
310.310791 0.137903 
311.294678 2.199254 
311.830261 0.413162 
312.838379 1.701163 
312.87442 0.125853 
315.337891 0.118939 
316.905151 1.091055 
317.906494 3.270785 
318.904388 0.153162 
319.6633 0.136189 
319.836578 0.604252 
319.902557 0.139479 
321.075287 0.237263 
323.054779 0.437238 
324.326202 100.0 
324.861542 0.136566 
324.888031 2.380452 
324.986664 1.407882 
325.034332 0.431763 
325.329529 21.006357 
326.332764 0.287245 
326.929138 0.133866 
327.049988 2.174733 
327.825958 1.993285 
331.022736 0.124283 
335.09198 0.138308 
335.834229 0.126174 
336.840027 0.279129 
337.007935 0.125269 
337.034576 1.864606 
337.846436 0.120511 
340.869354 0.135611 
341.065948 0.675453 
342.898407 0.791705 
342.997314 9.153153 
344.829163 1.800756 
351.948364 0.641703 
353.138794 0.566707 
353.842163 2.229118 
355.044525 0.504266 
359.028748 2.261228 
365.102417 0.331872 
367.117279 0.278171 
369.837128 0.724529 
370.839233 0.153725 
373.157104 0.144317 
381.131805 0.262465 
383.112671 95.017731 
398.344727 0.116239 
400.277771 0.158738 
400.715668 0.131536 
401.123322 1.155966 
411.107361 2.076604 
415.138702 0.323037 
418.827515 0.124262 
418.84903 0.124757 
425.331146 0.130413 
426.336639 0.310818 
426.408264 0.153813 
426.46698 0.150996 
427.297455 0.132484 
428.389465 0.315082 
428.423889 0.751181 
428.854767 0.842572 
429.319214 2.231677 
433.778229 0.115235 
436.488525 0.140144 
446.865692 0.784627 
447.346893 1.569226 
448.3479 0.120277 
END IONS

