BEGIN IONS
PEPMASS=540.288
CHARGE=1+
COMPOUNDNAME=Massbank: Apramycin
LIBRARYQUALITY=3
SMILES=[H]OC([H])([H])C([H])(O1)C([H])(N([H])[H])C([H])(O[H])C([H])(O[H])C([H])1OC([H])(O2)C([H])(N([H])C([H])([H])[H])C([H])(O[H])C([H])(O3)C([H])2C([H])([H])C([H])(N([H])[H])C([H])(OC([H])(C([H])(O[H])4)C([H])(N([H])[H])C([H])([H])C([H])(N([H])[H])C([H])(O[H])4)3
INCHIKEY=XZNUGFQTQHRASN-UHFFFAOYSA-N
INCHI=1S/C21H41N5O11/c1-26-11-14(30)18-8(33-20(11)37-21-16(32)13(29)10(25)9(4-27)34-21)3-7(24)19(36-18)35-17-6(23)2-5(22)12(28)15(17)31/h5-21,26-32H,2-4,22-25H2,1H3/t5-,6+,7-,8+,9-,10-,11+,12+,13+,14-,15-,16-,17-,18+,19?,20-,21-/m1/s1
MSLEVEL=2
SOURCE_INSTRUMENT=ESI-LC-ESI-QTOF
FILENAME=Massbank_ESI_positive_8_1_2014_peaks.mgf
SEQ=*..*
IONMODE=Positive
ORGANISM=MASSBANK
NAME=Massbank: Apramycin [M+H]+
PI=Putative Massbank Match
DATACOLLECTOR=Massbank
PUBMED=N/A
SUBMITUSER=mwang87
TAGS=
SPECTRUMID=CCMSLIB00000206044
SCANS=1304
60.0418 168.736 
68.0474 170.753 
69.0389 105.63 
72.0449 493.112 
74.0608 535.636 
80.0491 130.485 
81.0347 154.642 
82.0349 121.302 
82.0642 191.316 
84.0463 1094.829 
86.0609 766.62 
90.0567 357.756 
94.0687 252.146 
96.0446 1361.948 
97.0287 108.165 
98.0602 568.177 
99.0467 103.194 
100.0372 130.745 
102.0544 805.35 
108.0469 203.234 
109.0291 121.122 
109.0756 155.34 
110.061 1198.243 
111.047 1194.45 
114.0585 287.682 
116.0727 182.831 
118.0537 104.412 
122.0586 514.075 
124.0752 201.238 
126.0566 1903.574 
128.0723 828.309 
132.0457 164.444 
135.0943 372.929 
136.0788 208.225 
137.0747 106.508 
138.0575 305.849 
139.0817 119.285 
140.0716 439.609 
142.049 301.058 
144.065 1247.754 
145.1 496.107 
146.0781 224.795 
150.0564 493.112 
151.0344 100.739 
152.0927 423.837 
153.0986 162.428 
154.0857 209.822 
162.0775 1767.818 
163.1077 1927.53 
164.0707 433.42 
168.0703 443.202 
172.0981 161.13 
173.0944 173.368 
175.1078 263.925 
180.0848 192.893 
181.0939 578.359 
182.0823 405.869 
187.1169 250.948 
199.1091 2954.682 
200.0936 947.295 
201.1207 498.503 
211.1028 140.287 
217.1185 10000.0 
225.1194 190.178 
227.1004 119.904 
229.1274 113.336 
241.1142 108.445 
253.1189 503.893 
255.1375 147.634 
259.1281 105.37 
271.1311 918.547 
289.136 351.368 
295.1342 136.175 
308.1565 151.927 
313.1389 361.549 
326.1646 107.207 
END IONS

