BEGIN IONS
PEPMASS=209.046
CHARGE=1+
COMPOUNDNAME=2,4-diacetylphloroglucinol
LIBRARYQUALITY=3
SMILES=N/A
INCHIKEY=PIFFQYJYNWXNGE-UHFFFAOYSA-N
INCHI=InChI=1S/C10H10O5/c1-4(11)8-6(13)3-7(14)9(5(2)12)10(8)15/h3,13-15H,1-2H3
MSLEVEL=2
SOURCE_INSTRUMENT=N/A-ESI-QFT
FILENAME=library_mgf.mgf
SEQ=*..*
IONMODE=negative
ORGANISM=MONA
NAME=2,4-diacetylphloroglucinol [M-H]-
PI=MoNA
DATACOLLECTOR=MoNA:VF-NPL-QEHF002526
PUBMED=N/A
SUBMITUSER=mwang87
TAGS=
SPECTRUMID=CCMSLIB00004693589
SCANS=2526
50.29163 0.036766 
50.372314 0.065695 
51.311996 0.051898 
52.41724 0.062365 
52.692982 0.071247 
53.811214 0.070531 
53.862949 0.044477 
53.923321 0.049178 
54.237766 0.066132 
55.098526 0.035673 
55.321613 0.054109 
57.033237 1.988787 
57.444038 0.047713 
58.611073 0.052817 
58.811855 0.04 
59.012508 3.493848 
59.784588 0.07021 
60.291866 0.03614 
61.384987 0.040061 
61.456799 0.033641 
63.022648 1.564302 
63.116741 0.050276 
63.812164 0.03831 
64.742653 0.073919 
65.001945 13.028315 
65.152725 0.069733 
65.28756 0.040494 
65.321205 0.038537 
65.333183 0.057962 
66.005356 0.12333 
66.256119 0.033442 
66.414627 0.069448 
66.94474 0.062089 
67.233253 0.052224 
67.465538 0.048313 
67.880775 0.044694 
68.215897 0.05881 
68.832283 0.070712 
70.762764 0.052959 
71.734901 0.030608 
72.492432 0.052916 
72.782906 0.034495 
72.997009 0.048537 
75.208862 0.077266 
76.839371 0.031623 
76.999535 0.065839 
77.03833 0.268467 
78.273071 0.05777 
79.017616 0.327682 
81.033257 41.204636 
82.036636 1.783046 
82.039307 0.306291 
82.585243 0.032377 
82.827164 0.0727 
82.998528 0.069351 
83.01252 100.0 
84.015823 3.909839 
84.018646 0.935449 
84.331245 0.223257 
84.335037 0.056298 
85.499428 0.094226 
85.645386 0.067172 
85.981339 0.048428 
86.06955 0.074349 
86.992172 0.067017 
87.096352 0.064841 
87.790428 0.032038 
88.446442 0.029976 
89.001953 1.19241 
89.808762 0.034172 
89.855995 0.05783 
91.311623 0.028585 
92.354378 0.028144 
93.033241 1.577495 
95.048912 2.43943 
95.826797 0.03204 
99.043877 0.136103 
99.932373 0.05715 
102.142349 0.060198 
103.017799 0.05448 
104.47934 0.045095 
105.033363 27.494028 
106.036621 1.273429 
107.012611 19.013617 
107.885811 0.063378 
108.015968 0.560309 
108.215187 0.06566 
108.991837 0.0652 
110.687004 0.055029 
117.033257 0.09309 
119.048676 0.14669 
119.201569 0.048187 
121.028351 7.975321 
121.237602 0.041977 
122.031761 0.064663 
122.036118 0.14714 
122.583725 0.04122 
123.043983 30.707739 
124.047218 1.569859 
124.800919 0.037807 
125.02327 8.721029 
125.995674 0.04172 
126.026512 0.070575 
130.482544 0.049591 
131.012726 3.727199 
132.548538 0.055195 
134.985397 0.076358 
135.84404 0.04946 
136.244507 0.032458 
137.695419 0.062919 
137.876038 0.068696 
139.038849 0.332652 
143.289352 0.075144 
145.924866 0.079423 
148.015533 0.809834 
149.023346 49.985889 
150.026505 3.842495 
151.00267 41.215645 
151.009491 0.867339 
152.006134 2.920894 
154.540878 0.080092 
159.279465 0.068478 
160.51355 0.060319 
163.039169 2.475117 
164.056076 0.041455 
164.186142 0.064487 
165.054749 10.470468 
166.02623 0.265145 
166.058304 0.490978 
167.034027 16.943569 
168.037796 0.926851 
168.773071 0.059776 
172.192139 0.030066 
173.023361 0.346452 
173.032394 0.063699 
175.002792 5.961357 
176.006165 0.098897 
176.389572 0.086109 
176.582993 0.073054 
176.982071 0.649108 
179.742584 0.083757 
185.282547 0.067142 
186.936996 0.064 
191.034348 8.703507 
191.522095 0.07996 
192.03804 0.323679 
193.013474 52.73275 
194.017059 5.470668 
198.988678 0.072441 
202.099289 0.067519 
204.132401 0.07546 
204.256378 0.055446 
209.045044 14.633327 
210.048981 1.460249 
210.387787 0.049411 
219.843048 0.165347 
219.853516 0.287785 
225.26416 0.067184 
230.004547 0.050783 
END IONS

