BEGIN IONS
PEPMASS=1051.58
CHARGE=1+
COMPOUNDNAME=Tomatine
LIBRARYQUALITY=3
SMILES=N/A
INCHIKEY=REJLGAUYTKNVJM-SGXCCWNXSA-N
INCHI=InChI=1S/C50H83NO21/c1-20-7-12-50(51-15-20)21(2)32-28(72-50)14-26-24-6-5-22-13-23(8-10-48(22,3)25(24)9-11-49(26,32)4)65-45-40(63)37(60)41(31(18-54)68-45)69-47-43(71-46-39(62)36(59)34(57)29(16-52)66-46)42(35(58)30(17-53)67-47)70-44-38(61)33(56)27(55)19-64-44/h20-47,51-63H,5-19H2,1-4H3/t20-,21-,22-,23-,24+,25-,26-,27+,28-,29+,30+,31+,32-,33-,34+,35+,36-,37+,38+,39+,40+,41-,42-,43+,44-,45+,46-,47-,48-,49-,50-/m0/s1
MSLEVEL=2
SOURCE_INSTRUMENT=N/A-ESI-QFT
FILENAME=library_mgf.mgf
SEQ=*..*
IONMODE=positive
ORGANISM=MONA
NAME=Tomatine [M+NH4]+
PI=MoNA
DATACOLLECTOR=MoNA:VF-NPL-QEHF026717
PUBMED=N/A
SUBMITUSER=mwang87
TAGS=
SPECTRUMID=CCMSLIB00004719781
SCANS=26717
73.028442 31.471842 
73.902832 0.074323 
74.031754 1.036174 
74.037811 0.06879 
74.060051 0.012063 
75.198608 0.055093 
77.038986 0.019641 
77.76413 0.072683 
78.135368 0.05925 
78.2658 0.065801 
78.39431 0.065938 
79.054245 5.463333 
79.269424 0.073489 
80.049484 0.31631 
80.057426 0.115319 
80.44532 0.063022 
81.033508 9.345872 
81.069923 8.427093 
81.124352 0.082938 
82.036797 0.398304 
82.065125 0.626894 
82.073227 0.217297 
83.01281 0.22997 
83.04921 0.577924 
83.085503 1.335448 
84.080818 7.459728 
84.236397 0.076159 
85.028442 100.0 
85.064728 0.044445 
85.084122 0.289961 
85.253731 0.063159 
86.031769 5.237953 
86.096382 0.234448 
86.342712 0.057734 
86.486374 0.058685 
86.877975 0.014195 
87.032616 0.096838 
87.04409 5.827367 
88.047409 0.017894 
88.3507 0.053291 
89.247475 0.063033 
89.642654 0.05863 
89.790237 0.061552 
89.790901 0.064958 
89.791748 0.0507 
90.204056 0.048323 
91.039017 11.222057 
91.054222 5.615115 
92.042442 0.09778 
92.057541 0.025418 
93.066879 0.066255 
93.069916 5.647727 
93.07328 0.016586 
94.065147 1.070644 
94.073257 0.271905 
94.184433 0.020624 
94.870216 0.056669 
95.049187 2.04111 
95.068901 0.017277 
95.072937 0.491848 
95.085556 6.142673 
95.203773 0.067133 
96.052452 0.028587 
96.080772 2.258831 
96.088898 0.152699 
97.028442 56.101467 
97.064774 0.371068 
97.084282 0.080713 
97.101105 0.138068 
97.897583 0.062058 
98.031792 3.537202 
98.096413 2.652829 
98.975487 0.022903 
99.032616 0.102568 
99.04409 7.088615 
99.04718 0.041392 
99.080444 0.130949 
99.099815 0.017115 
100.047379 0.119106 
100.083687 0.014212 
100.112045 0.017763 
101.023346 1.241599 
101.18692 0.08343 
103.038963 1.531052 
103.576691 0.086907 
104.346153 0.072989 
104.781166 0.096565 
105.044769 0.050309 
105.069923 11.022599 
106.073265 1.090403 
107.049477 0.013396 
107.085526 9.356316 
107.475479 0.040905 
107.55471 0.05439 
107.87326 0.057766 
108.080666 0.221296 
108.088898 0.530564 
108.949089 0.083115 
109.028419 11.394323 
109.064766 0.644318 
109.088577 0.5679 
109.097008 0.021248 
109.101173 7.011276 
110.031731 0.377825 
110.096436 0.135983 
110.104454 0.28101 
111.043968 0.102215 
111.080627 0.016278 
111.103996 0.012202 
111.11689 0.017416 
111.494942 0.06087 
111.604393 0.045189 
111.65863 0.071894 
112.07563 1.043125 
112.111969 0.270264 
113.981705 0.024804 
114.091377 10.035362 
114.718735 0.089411 
115.039024 15.762796 
115.094887 0.24536 
115.584328 0.043752 
116.042259 0.768656 
116.45594 0.079741 
117.054626 0.183017 
117.069893 3.018956 
118.073036 0.020407 
118.131508 0.098331 
119.085548 5.888598 
120.088875 0.392985 
120.193542 0.078269 
121.064842 0.01651 
121.101196 5.205268 
122.096504 0.326718 
122.104546 0.087542 
122.934387 0.048826 
123.044174 0.099237 
123.080399 0.159584 
123.099815 0.014799 
123.104324 0.014873 
123.116798 1.027729 
123.747711 0.077691 
123.850769 0.082634 
124.107338 0.220045 
124.11216 16.960396 
125.023537 0.028047 
125.095917 0.048332 
125.115471 1.259543 
125.119797 0.038833 
125.240746 0.054243 
125.38456 0.111125 
126.127739 27.421581 
127.038986 33.069241 
127.11174 1.582325 
127.131035 2.159626 
128.042328 2.346908 
128.062103 0.044714 
128.106949 1.463523 
129.054413 0.018283 
129.069855 0.274169 
129.110199 0.023471 
129.980011 0.069655 
130.708435 0.052278 
131.085556 4.094847 
132.088837 0.150887 
133.049515 1.735021 
133.101227 6.828036 
134.095566 0.013417 
134.104416 0.415514 
135.080368 0.012192 
135.11676 3.970744 
136.076187 0.078832 
136.111755 0.01673 
136.120132 0.147218 
137.096222 0.02725 
137.898834 0.058776 
138.127777 5.870701 
139.039169 0.10167 
139.130966 0.75305 
140.107056 0.420209 
140.143433 1.139281 
140.362305 0.069242 
141.054535 0.014912 
141.146637 0.019882 
142.122833 0.159545 
143.03389 0.01871 
143.085602 1.059475 
143.126373 0.018872 
144.093658 0.017447 
144.138611 0.157589 
145.049591 23.606199 
145.101242 12.392076 
146.053009 1.474321 
146.104538 1.26982 
146.617554 0.093831 
146.861923 0.070414 
147.116791 17.503611 
148.113083 0.017136 
148.12027 2.530882 
149.096237 0.28093 
149.132477 2.700181 
150.127869 0.408029 
150.135269 0.031559 
151.111771 0.742582 
152.115112 0.015644 
153.055069 0.014063 
155.085541 0.025155 
155.454544 0.046246 
157.049866 0.016663 
157.08316 0.053309 
157.101318 2.156187 
157.632599 0.060593 
158.10466 0.04505 
158.154114 0.015192 
158.963882 0.022576 
159.116882 12.693513 
159.485443 0.065808 
159.54303 0.012009 
159.549393 0.07995 
160.120255 1.575041 
161.09639 0.080296 
161.132477 33.937248 
162.12822 0.600766 
162.135681 5.599667 
162.506058 0.054408 
163.060074 1.842966 
163.111816 1.198226 
163.139725 0.055706 
163.147888 0.220634 
164.107361 0.01909 
164.115295 0.01304 
164.143616 0.935084 
164.151047 0.015943 
164.215973 0.062741 
165.03476 0.064669 
165.127594 0.039323 
166.123001 0.025821 
166.1595 0.059619 
166.361816 0.070121 
167.06427 0.012496 
168.13855 0.271716 
168.598328 0.043034 
169.049911 0.206879 
169.101166 0.022003 
169.141953 0.013325 
169.750824 0.083606 
171.116791 1.781447 
172.120377 0.097587 
172.144226 0.087987 
173.044296 0.020918 
173.124359 0.025863 
173.132553 9.395883 
173.723373 0.055073 
174.13591 1.219879 
175.11174 0.012398 
175.147827 0.454691 
176.143387 0.025528 
176.151733 0.046443 
177.127319 0.020597 
177.164307 0.012316 
178.158997 0.12113 
178.588257 0.011835 
178.765182 0.108934 
181.050262 0.018498 
183.116867 0.140914 
185.132446 1.951148 
186.136078 0.020527 
187.148193 1.511572 
188.15123 0.036128 
189.163528 0.074727 
190.909363 0.065318 
192.860718 0.066184 
193.049728 0.026256 
195.55687 0.058025 
197.132553 0.272614 
197.605408 0.089127 
199.148224 2.462371 
200.151413 0.097423 
201.163895 0.19415 
201.440216 0.075303 
201.712036 0.062241 
203.17955 0.016901 
208.807358 0.055227 
209.132706 0.016023 
209.232437 0.085802 
211.060501 0.023621 
211.147949 0.109478 
212.151855 0.020915 
213.163849 1.04565 
213.836304 0.076505 
214.167892 0.015183 
215.179565 0.782749 
218.202667 0.05409 
219.018494 0.028741 
219.041611 0.072451 
220.292938 0.06445 
223.060516 0.106629 
225.164017 0.169746 
225.989014 0.069125 
226.169861 0.018575 
227.179764 0.21306 
228.183472 0.027874 
229.070755 0.018161 
229.196014 0.011861 
232.499084 0.064667 
237.02771 0.044523 
241.070557 0.201538 
241.195038 0.074897 
245.04953 0.022657 
250.107224 0.084126 
251.179718 0.232001 
252.183182 0.054617 
253.195053 5.81177 
254.19841 0.827751 
255.210648 26.990353 
256.21402 6.848376 
257.217438 0.19115 
259.080872 0.016119 
261.883606 0.092737 
265.652557 0.090135 
269.225739 0.01446 
271.205994 1.494721 
272.209137 0.082669 
273.221222 5.247528 
274.224701 0.957983 
274.758087 0.067434 
283.568085 0.085659 
286.354431 0.049898 
288.204865 0.012358 
289.216095 0.110956 
302.499512 0.061533 
303.130066 0.074261 
304.121124 0.071164 
304.166046 0.04663 
304.187317 0.144732 
314.060455 0.067944 
316.952118 0.059578 
317.528259 0.022392 
322.110657 0.055246 
328.696533 0.050564 
329.083801 0.074041 
330.825531 0.096082 
334.627838 0.047814 
339.004639 0.070197 
347.095459 0.023167 
347.940704 0.069177 
352.178772 0.064452 
355.47821 0.064273 
361.011017 0.052182 
364.894043 0.064441 
366.429321 0.067415 
378.315765 0.406216 
379.283997 0.049789 
379.318237 0.014295 
380.303894 0.017044 
380.331024 2.97082 
381.335876 0.557513 
382.339417 0.018443 
395.31543 0.024034 
396.326477 1.386453 
397.330536 0.077973 
398.341858 5.751979 
399.345245 1.500751 
399.921783 0.103259 
400.348145 0.023865 
403.690369 0.021881 
410.333984 0.081167 
412.32486 0.098956 
412.356659 0.017098 
413.325531 0.025524 
413.362335 0.020407 
414.336609 1.046461 
415.34082 0.057045 
416.352142 5.297665 
416.382538 0.014642 
417.355835 0.902116 
428.352997 0.037742 
429.353119 0.026752 
430.332458 0.059601 
431.372131 0.022652 
432.345001 0.022357 
432.725067 0.074493 
441.333099 0.07106 
447.347595 0.296117 
448.351807 0.045765 
457.814301 0.053035 
462.72998 0.055226 
467.137482 0.01723 
479.137848 0.172044 
479.635284 0.091193 
480.143738 0.016616 
488.305542 0.020666 
490.321869 0.03642 
527.161621 0.02437 
539.1604 0.013798 
545.730713 0.074819 
558.382385 0.039044 
560.394287 2.530077 
561.398132 0.968068 
562.402954 0.013298 
576.39032 0.382303 
578.404358 1.039122 
579.409119 0.339088 
592.424316 0.017116 
593.426025 0.029055 
594.596252 0.055177 
599.180298 0.091108 
634.364136 0.018312 
646.421753 0.066809 
659.2005 0.276244 
684.247192 0.084653 
707.937744 0.054126 
708.087585 0.093778 
708.190735 0.121115 
708.271729 0.201464 
708.778259 0.067375 
743.26947 0.088871 
750.004456 0.103026 
750.456604 0.021847 
752.958069 0.055172 
758.294678 0.087725 
773.029785 0.069557 
838.750183 0.093655 
854.492493 0.514012 
855.490356 0.268704 
862.385742 0.014618 
869.509094 0.019788 
870.487122 0.111234 
871.492371 0.016662 
875.387939 0.014638 
884.498474 1.360435 
885.502869 0.712864 
886.503601 0.136369 
887.516785 0.089522 
888.523376 0.021357 
894.47876 0.013452 
897.488037 0.056914 
899.510681 0.012943 
900.49292 0.182391 
917.527649 0.067946 
918.534912 0.024747 
924.486877 0.021705 
936.475769 0.016506 
938.478394 0.02409 
1014.525452 2.654798 
1015.527893 0.867318 
1016.542053 15.594296 
1017.545166 9.905544 
1018.546997 3.870175 
1019.550598 0.473589 
1028.305054 0.076897 
1031.554199 1.865155 
1032.538818 6.333703 
1033.540649 3.110498 
1034.550903 5.220897 
1035.552856 3.033396 
1036.558105 0.507843 
1037.56665 0.016073 
1045.546753 0.05418 
1046.552734 8.09957 
1047.55603 6.433815 
1048.558594 2.218754 
1049.570679 8.243831 
1050.577026 6.752173 
1051.575195 1.068505 
1054.521362 0.016896 
1056.532593 0.560314 
1057.540283 0.231496 
1064.562988 1.184022 
1065.564697 0.887096 
1066.567261 0.119731 
1068.523315 0.643068 
1069.04126 0.07217 
1069.52832 0.159375 
1070.514526 0.215038 
1071.510376 0.025726 
1072.511963 0.015873 
END IONS

