BEGIN IONS
PEPMASS=175.024
CHARGE=1+
COMPOUNDNAME=HMDB:HMDB00958-1360 trans-Aconitic acid
LIBRARYQUALITY=3
SMILES=OC(=O)C\C(=C/C(O)=O)C(O)=O
INCHIKEY=GTZCVFVGUGFEME-HNQUOIGGSA-N
INCHI=InChI=1S/C6H6O6/c7-4(8)1-3(6(11)12)2-5(9)10/h1H,2H2,(H,7,8)(H,9,10)(H,11,12)/b3-1+
MSLEVEL=2
SOURCE_INSTRUMENT=Positive-Quattro_QQQ:10eV
FILENAME=hmdb_intermediate.mgf
SEQ=*..*
IONMODE=Positive
ORGANISM=HMDB
NAME=HMDB:HMDB00958-1360 trans-Aconitic acid M+H
PI=HMDB
DATACOLLECTOR=HMDB
PUBMED=N/A
SUBMITUSER=mwang87
TAGS=
SPECTRUMID=CCMSLIB00000425683
SCANS=655
41.393 4.358 
85.058 100.0 
128.934 30.046 
172.854 5.39 
END IONS

