BEGIN IONS
PEPMASS=1051.58
CHARGE=1+
COMPOUNDNAME=Tomatine
LIBRARYQUALITY=3
SMILES=N/A
INCHIKEY=REJLGAUYTKNVJM-SGXCCWNXSA-N
INCHI=InChI=1S/C50H83NO21/c1-20-7-12-50(51-15-20)21(2)32-28(72-50)14-26-24-6-5-22-13-23(8-10-48(22,3)25(24)9-11-49(26,32)4)65-45-40(63)37(60)41(31(18-54)68-45)69-47-43(71-46-39(62)36(59)34(57)29(16-52)66-46)42(35(58)30(17-53)67-47)70-44-38(61)33(56)27(55)19-64-44/h20-47,51-63H,5-19H2,1-4H3/t20-,21-,22-,23-,24+,25-,26-,27+,28-,29+,30+,31+,32-,33-,34+,35+,36-,37+,38+,39+,40+,41-,42-,43+,44-,45+,46-,47-,48-,49-,50-/m0/s1
MSLEVEL=2
SOURCE_INSTRUMENT=N/A-ESI-QFT
FILENAME=library_mgf.mgf
SEQ=*..*
IONMODE=positive
ORGANISM=MONA
NAME=Tomatine [M+NH4]+
PI=MoNA
DATACOLLECTOR=MoNA:VF-NPL-QEHF026716
PUBMED=N/A
SUBMITUSER=mwang87
TAGS=
SPECTRUMID=CCMSLIB00004719778
SCANS=26716
72.848106 0.044748 
72.946991 0.031858 
73.028442 18.960913 
73.182854 0.031215 
73.437798 0.019741 
74.031807 0.497045 
75.489395 0.025282 
75.924492 0.032847 
77.384438 0.0308 
77.80497 0.029495 
77.955971 0.036068 
78.197098 0.031959 
78.637451 0.041443 
79.054283 0.50303 
79.205383 0.022091 
80.461281 0.026728 
80.592018 0.03965 
81.033531 3.202743 
81.069923 2.362391 
82.065147 0.075327 
83.049271 0.068012 
83.085419 0.095515 
83.437965 0.040312 
83.628609 0.026887 
84.080841 3.232792 
85.028458 65.887238 
85.064514 0.023726 
86.031799 3.43732 
86.096642 0.031801 
86.395592 0.033112 
87.032639 0.133746 
87.044136 2.562811 
87.714279 0.020661 
88.053741 0.024933 
91.036102 0.066118 
91.039024 10.704309 
91.042191 0.071617 
91.054291 0.79166 
92.028564 0.024684 
92.042427 0.058632 
93.062836 0.040931 
93.069939 0.967387 
94.06501 0.059157 
94.646355 0.044327 
95.049156 0.45222 
95.073242 0.021662 
95.085564 1.741402 
95.644333 0.030684 
96.080803 0.987336 
96.088997 0.031617 
96.287575 0.028531 
96.817398 0.028337 
97.028458 34.081612 
97.064743 0.033887 
97.316559 0.02298 
97.376862 0.032133 
98.031799 2.0419 
98.096458 1.013285 
99.044128 4.14277 
99.080482 0.267819 
100.047623 0.063235 
101.023369 0.206664 
101.060402 0.02425 
101.570541 0.043231 
103.038986 0.96092 
103.63829 0.045233 
103.734299 0.031153 
104.19519 0.061852 
105.069962 1.992444 
105.199928 0.027311 
106.073181 0.029002 
107.085526 2.636552 
108.080566 0.025264 
108.088814 0.063839 
109.028458 5.995144 
109.064774 0.097214 
109.101219 2.519162 
109.429375 0.029546 
110.031776 0.128401 
111.039375 0.03247 
111.044235 0.022021 
112.055283 0.036906 
112.075699 0.660957 
112.112198 0.029492 
114.0914 9.917782 
115.039024 19.066687 
115.094673 0.409111 
115.144547 0.047991 
116.042412 1.249516 
116.11937 0.031084 
117.054619 0.243064 
117.069939 0.506624 
117.811218 0.031002 
119.085609 1.584266 
119.662445 0.041006 
121.101257 2.167355 
122.104836 0.06757 
123.080444 0.091711 
123.116814 0.431074 
124.112183 8.13652 
124.117279 0.02979 
125.096375 0.085913 
125.115501 0.479649 
125.120049 0.03388 
125.892761 0.048545 
126.091797 0.029797 
126.127769 17.017723 
127.039009 28.315226 
127.10183 0.023105 
127.111786 2.627204 
127.131088 1.487548 
128.042358 2.395289 
128.106995 1.358241 
128.114822 0.030496 
129.054367 0.068317 
129.110504 0.052843 
131.077515 0.029979 
131.085495 1.143464 
131.310104 0.029284 
131.554092 0.043728 
132.08876 0.023351 
133.049576 4.494618 
133.101242 2.163964 
134.052811 0.065185 
134.104614 0.03217 
135.116852 1.695869 
136.075867 0.090814 
136.120071 0.03826 
137.132629 0.024398 
138.127823 1.12091 
139.039291 0.026021 
139.082626 0.021715 
139.13118 0.053671 
139.770554 0.027775 
140.107071 0.479431 
140.143494 0.706966 
141.147552 0.031452 
142.122757 0.3954 
142.697342 0.031679 
143.085663 0.43011 
144.116394 0.018818 
144.138428 1.747907 
145.049561 40.704025 
145.101181 4.748727 
146.052963 3.343843 
146.104645 0.317703 
146.984985 0.0381 
147.054016 0.080959 
147.116806 6.841503 
148.12027 0.694343 
148.317291 0.03371 
149.096268 0.329997 
149.132675 1.007872 
149.693176 0.033988 
151.111832 1.053336 
151.1483 0.022918 
152.677582 0.03517 
154.305038 0.049376 
156.467072 0.020442 
156.576828 0.040429 
157.101303 0.641515 
159.116867 4.271614 
160.120163 0.384416 
161.096512 0.048387 
161.132385 12.620375 
162.128708 0.034508 
162.13591 1.752217 
162.296188 0.042428 
163.060028 11.349987 
163.111679 1.426571 
163.147644 0.022929 
164.063629 0.717396 
164.116196 0.059237 
164.143814 0.037571 
165.127747 0.064179 
166.122757 0.075299 
167.720428 0.021221 
168.138443 0.352724 
169.049637 0.287307 
169.573822 0.030836 
171.116806 0.543422 
172.467453 0.027641 
173.132553 3.238277 
174.13588 0.22297 
175.076553 0.021229 
175.1129 0.025041 
175.148178 0.375334 
177.126434 0.026742 
178.353165 0.053902 
179.107513 0.026917 
180.138199 0.066956 
183.116119 0.023551 
183.531052 0.042433 
185.132553 0.607824 
185.743988 0.034323 
187.060455 0.17393 
187.148346 0.530484 
188.996628 0.028547 
189.150131 0.040735 
189.163223 0.061099 
193.049789 0.191414 
194.102417 0.945723 
194.165756 0.020855 
196.132507 0.050522 
197.132919 0.031315 
199.060257 0.076557 
199.138321 0.021148 
199.148239 0.763857 
200.151596 0.041952 
201.163681 0.067757 
205.720581 0.023066 
207.6492 0.044779 
208.971222 0.042707 
211.059952 0.070657 
213.164001 0.407435 
215.179672 0.678362 
216.183685 0.024167 
223.060532 0.882333 
224.842346 0.046292 
225.162964 0.036722 
227.179443 0.214617 
228.184036 0.031849 
229.070953 0.197318 
241.070877 1.854064 
241.195801 0.026111 
241.831482 0.043512 
242.074921 0.031652 
243.61203 0.021671 
251.17952 0.398969 
252.182816 0.062747 
253.195114 5.926888 
254.198685 1.209682 
255.210739 37.482838 
256.21405 9.524361 
257.217468 0.444171 
259.081482 0.513628 
261.467346 0.021226 
261.840057 0.027828 
264.282227 0.053322 
269.190765 0.144628 
269.349762 0.021014 
270.170319 0.032804 
271.081207 0.045684 
271.205688 3.638424 
272.20932 0.499013 
273.221161 15.907708 
274.224731 3.959102 
275.226959 0.079075 
279.000641 0.030553 
281.461487 0.021455 
283.243256 0.067864 
284.441925 0.034002 
285.258545 0.039145 
288.013245 0.04003 
289.2164 1.586901 
290.21991 0.077187 
295.103271 0.100281 
302.11911 0.042545 
304.189606 0.059255 
315.530945 0.037218 
325.113556 0.245167 
342.091644 0.029731 
345.746033 0.0295 
347.082458 0.020111 
351.017914 0.063148 
357.280487 0.02213 
358.329865 0.022795 
363.059357 0.067585 
369.027252 0.042363 
370.351044 0.027961 
372.294464 0.024694 
378.315826 0.614778 
378.698578 0.039299 
380.331085 2.982896 
381.030518 0.024218 
381.311951 0.075535 
381.335724 0.582863 
382.316315 0.077398 
394.310974 0.040901 
395.318787 0.025057 
395.348114 0.030267 
396.325958 2.55448 
397.330933 0.58193 
398.211273 0.023152 
398.341553 8.697036 
399.346161 3.011991 
400.34967 0.066372 
401.052704 0.03372 
404.055695 0.02272 
412.321289 0.700461 
412.355927 0.028703 
413.324646 0.327239 
414.336426 3.822129 
415.341675 0.957301 
416.352142 16.614084 
417.263306 0.131022 
417.355347 5.858402 
418.359406 0.713098 
428.317902 0.267939 
428.35199 0.48928 
429.355255 0.155853 
430.332642 0.81952 
430.364441 0.125219 
431.335663 0.688085 
431.372131 0.101144 
432.311066 0.033849 
432.346802 2.042662 
433.350616 0.37115 
435.274048 2.19419 
436.27832 0.422158 
447.347656 0.239311 
448.345856 0.033582 
450.313507 0.12756 
458.363007 0.156671 
466.461731 0.034016 
467.176544 0.035466 
479.269806 0.026598 
494.363831 0.023929 
511.232056 0.04752 
517.116333 0.022495 
530.738586 0.04443 
534.769958 0.076752 
542.382812 0.066855 
543.391479 0.027536 
544.010681 0.025776 
544.927673 0.034952 
555.166016 0.026084 
558.379944 0.133674 
560.394775 1.596713 
561.398621 0.446342 
562.468933 0.044034 
567.312195 0.030806 
576.389221 0.99166 
577.392944 0.106081 
577.592529 0.035755 
578.405029 6.908809 
579.408264 3.010836 
580.411804 0.356983 
590.404358 0.036838 
594.398193 0.726276 
595.403442 0.089906 
595.897034 0.044501 
620.416504 0.026944 
634.363159 0.535156 
636.505432 0.052952 
637.463928 0.034417 
652.375427 0.033728 
659.198914 0.056216 
688.620605 0.024742 
708.146973 0.076852 
708.274353 0.087825 
711.204895 0.043441 
740.459229 0.182767 
741.464355 0.045306 
764.765869 0.051703 
778.407349 0.034309 
780.927185 0.029186 
790.765259 0.025584 
814.70697 0.023067 
822.315491 0.026947 
854.487915 0.058453 
863.152527 0.029463 
866.444275 0.024034 
868.28949 0.036456 
870.482605 0.024928 
872.499512 0.499004 
873.502014 0.10357 
884.5 0.42286 
885.502441 0.195459 
888.492554 0.021875 
891.924255 0.025336 
900.49469 0.060599 
901.49646 0.086869 
902.510071 1.841875 
903.514648 1.21976 
904.51532 0.161696 
912.879944 0.02868 
918.515808 0.112314 
923.912842 0.038042 
929.850891 0.049171 
940.462036 0.032702 
955.153503 0.027207 
1003.534607 0.050682 
1014.52533 4.637681 
1015.529175 2.879834 
1016.540771 31.845942 
1017.544922 21.058989 
1018.547302 7.394065 
1019.55188 1.852747 
1020.548584 0.227309 
1021.999451 0.024094 
1031.554688 4.961965 
1032.408081 0.140429 
1032.53772 28.450424 
1033.540283 16.045488 
1034.552124 100.0 
1035.555664 68.174507 
1036.55835 24.684988 
1037.403931 0.068499 
1037.561646 6.158104 
1038.563965 1.139267 
1039.566284 0.031479 
1044.532227 0.056098 
1046.551636 19.064657 
1047.555786 15.054661 
1048.559326 6.134573 
1049.388428 0.038137 
1049.419067 0.058808 
1049.569336 44.040363 
1050.40918 0.041891 
1050.560913 54.242134 
1051.558594 22.647371 
1051.73938 0.02202 
1052.563965 5.867777 
1053.557495 0.394104 
1054.512695 0.098351 
1056.533447 3.117201 
1057.536499 1.310448 
1058.54187 0.094428 
1062.547607 0.085177 
1063.550171 0.913508 
1064.562988 49.438747 
1065.565308 40.071354 
1066.570557 15.792783 
1067.575806 4.045872 
1068.515625 9.105561 
1069.519287 4.935568 
1070.513184 4.665235 
1071.512817 1.794562 
1072.511963 1.538839 
1073.512817 0.098233 
1081.332642 0.046145 
1084.389404 0.029876 
END IONS

