BEGIN IONS
TITLE=Scan Number: 1
PEPMASS=601.35999
CHARGE=1+
COMPOUNDNAME=Desferrioxamine E
LIBRARYQUALITY=3
SMILES=ON1CCCCCNC(=O)CCC(=O)N(O)CCCCCNC(=O)CCC(=O)N(O)CCCCCNC(=O)CCC1=O
INCHIKEY=NHKCCADZVLTPPO-UHFFFAOYSA-N
INCHI=
MSLEVEL=2
SOURCE_INSTRUMENT=LC-ESI-Hybrid FT
FILENAME=f.novakj/siderophores/Desferri_ferrioxamine_E.mzXML;
SEQ=*..*
NOTES=
IONMODE=Positive
ORGANISM=GNPS-LIBRARY
NAME=Desferrioxamine E M+H
SPECTRUMID=CCMSLIB00001059067
ACTIVATION=CID
INSTRUMENT=ion trap
SCANS=1
173.497986 7009836.0 
201.122772 26323732.0 
283.128174 21268612.0 
301.138702 6372681.0 
319.233337 15883430.0 
339.238495 6702342.0 
383.228302 25176880.0 
401.238892 747411072.0 
402.242249 118578888.0 
419.249542 16987060.0 
483.244537 18188158.0 
501.339264 6614815.0 
583.345276 6485020.0 
601.355652 128260408.0 
END IONS

