BEGIN IONS
PEPMASS=155.07
CHARGE=1+
COMPOUNDNAME=terrein
LIBRARYQUALITY=3
SMILES=N/A
INCHIKEY=MHOOPNKRBMHHEC-HZIBQTDNSA-N
INCHI=InChI=1S/C8H10O3/c1-2-3-5-4-6(9)8(11)7(5)10/h2-4,7-8,10-11H,1H3/b3-2+/t7-,8-/m0/s1
MSLEVEL=2
SOURCE_INSTRUMENT=N/A-ESI-QFT
FILENAME=library_mgf.mgf
SEQ=*..*
IONMODE=positive
ORGANISM=MONA
NAME=terrein [M+H]+
PI=MoNA
DATACOLLECTOR=MoNA:VF-NPL-QEHF021221
PUBMED=N/A
SUBMITUSER=mwang87
TAGS=
SPECTRUMID=CCMSLIB00004712284
SCANS=21221
50.009136 0.002068 
50.076859 0.003657 
50.078182 0.003819 
50.313202 0.003826 
50.750034 0.004127 
50.845444 0.002343 
50.888794 0.004187 
50.93026 0.003538 
50.972713 0.008995 
51.054604 0.003644 
51.060875 0.00361 
51.424721 0.002566 
51.462074 0.001861 
51.475281 0.0027 
51.476452 0.03557 
51.61565 0.003982 
51.622543 0.00363 
51.78828 0.003481 
51.805073 0.002959 
51.930973 0.002549 
52.328609 0.00352 
52.424213 0.003188 
52.798122 0.005334 
52.979504 0.002966 
53.019615 0.003517 
53.038998 0.003111 
53.505733 0.003475 
53.554691 0.003601 
53.560844 0.003585 
54.168819 0.003896 
54.375854 0.002161 
54.44352 0.00251 
54.690594 0.004058 
54.820953 0.002919 
54.890537 0.004946 
54.97031 0.002899 
54.990219 0.003547 
55.054577 0.009004 
55.310001 0.003856 
55.503033 0.003746 
55.795055 0.002736 
55.832661 0.001695 
56.049854 0.002262 
56.110294 0.00381 
56.199333 0.00288 
56.640217 0.003588 
56.8894 0.003196 
56.965038 1.867881 
57.033737 0.003396 
57.070187 0.002449 
57.477318 0.005547 
57.73267 0.003127 
58.065403 0.145529 
58.615662 0.002361 
58.986656 0.009824 
58.988159 0.560129 
59.621216 0.00349 
59.745968 0.003368 
59.860023 0.002398 
59.930428 0.023846 
59.97757 0.004919 
59.986065 0.024643 
60.480133 0.003624 
60.481632 0.212522 
60.957859 0.006594 
61.010864 1.563362 
61.07325 0.004185 
61.25819 0.006334 
61.32325 0.002474 
62.013893 0.004583 
62.018661 0.490109 
62.477913 0.004715 
62.990135 0.459053 
63.006535 0.005422 
63.253777 0.001836 
63.299709 0.003796 
63.525913 0.003617 
63.807575 0.003662 
63.820995 0.002342 
63.997913 2.509095 
63.999763 0.004164 
64.565437 0.00207 
64.595581 0.002417 
65.223907 0.004041 
65.258774 0.002383 
65.553925 0.00431 
65.998077 0.00366 
66.046402 0.002366 
66.397057 0.003177 
66.492226 0.001942 
66.800163 0.003788 
66.892174 0.004312 
67.054344 0.048367 
67.308075 0.003381 
67.412552 0.002801 
67.48938 0.002278 
67.656929 0.003586 
67.988579 0.003462 
67.992996 1.583054 
68.494835 0.011207 
68.982719 0.046736 
68.991081 0.144524 
69.033379 0.00403 
69.069939 0.003277 
69.256432 0.006378 
69.486572 0.942595 
69.989708 0.032584 
70.06517 0.010304 
70.10273 0.001894 
70.484596 0.030433 
70.549484 0.001764 
70.69194 0.002982 
70.710304 0.006127 
70.901695 0.003432 
71.1614 0.003301 
71.355286 0.006804 
71.4832 0.010268 
71.578323 0.002684 
71.966118 0.002543 
72.298149 0.002252 
72.455635 0.002558 
72.546936 0.003859 
72.56057 0.00616 
72.694778 0.003032 
72.881813 0.003286 
73.076088 0.115915 
73.983871 0.002431 
74.117966 0.00362 
74.93084 0.0082 
74.975365 0.414032 
75.222672 0.002343 
75.502319 0.003875 
75.821297 0.003431 
76.332047 0.003349 
76.494316 0.007876 
76.794182 0.002665 
76.92794 0.259426 
76.978836 0.00296 
76.998245 10.635333 
77.050293 0.002852 
77.20887 0.001767 
77.466019 0.003574 
77.497925 0.091742 
77.500038 0.37181 
77.9879 0.11559 
77.996155 1.117163 
78.000473 0.045022 
78.011147 0.003938 
78.013474 0.103741 
78.076256 0.004007 
78.358887 0.002577 
78.491829 1.290766 
78.495903 0.004081 
78.619774 0.003651 
78.828537 0.008713 
78.994766 0.422068 
79.021225 51.121773 
79.054184 0.05311 
79.489746 0.012348 
79.866539 0.002844 
80.024612 0.015246 
81.016991 0.051567 
81.069885 0.272119 
81.490067 0.00294 
81.743507 0.002847 
82.467384 0.077232 
82.971252 0.159242 
83.049141 0.039187 
83.085648 0.002278 
83.423248 0.004028 
83.969025 0.00906 
84.006088 0.221734 
84.08078 0.309471 
84.469185 0.002302 
85.99852 0.005908 
86.003555 30.640842 
86.072159 0.004531 
86.503082 0.172283 
86.505547 1.174189 
86.558365 0.002724 
86.826393 0.005073 
86.993401 0.0092 
87.00148 3.237636 
87.00573 0.244172 
87.251625 0.003535 
87.497147 0.40189 
87.50174 0.007786 
87.88755 0.003893 
87.999985 1.365867 
88.258484 0.003658 
88.506432 0.003187 
88.998009 0.004642 
89.761971 0.004272 
89.979034 0.356471 
89.998627 0.009145 
90.482849 2.879026 
90.977036 0.019985 
90.982254 0.006725 
90.984772 0.174858 
91.054077 0.020098 
91.057404 0.007336 
91.096123 0.004208 
91.439178 0.003873 
91.480736 0.858532 
91.485359 0.003655 
91.535316 0.005224 
91.976471 0.398789 
92.107704 0.002376 
92.476036 0.004382 
92.479279 0.177762 
92.776398 0.003564 
92.974373 0.074583 
93.004974 0.005184 
93.011368 1.015174 
93.070084 0.018062 
93.207657 0.003516 
93.372101 0.003645 
93.513191 0.014205 
94.009247 0.049753 
94.02906 0.002924 
94.674782 0.006052 
94.928284 0.003457 
95.008812 8.649763 
95.049026 0.0039 
95.060501 0.005108 
95.085304 0.00659 
95.300873 0.004176 
95.510674 0.273244 
95.914803 0.002035 
96.006691 0.978977 
96.010323 0.035285 
96.080696 0.009793 
96.502449 0.00242 
97.005341 0.348825 
97.028572 0.002993 
97.06488 0.007826 
97.275124 0.003376 
97.511581 0.049895 
97.994576 3.417207 
98.496452 0.363698 
98.984352 0.74477 
98.992493 1.161044 
98.995728 0.035721 
99.488182 29.92977 
99.950653 0.003715 
99.982224 0.14043 
99.99041 2.23581 
99.995506 0.002527 
100.388954 0.003084 
100.465591 0.003073 
100.486153 8.546866 
100.490059 0.27778 
100.981781 0.353382 
100.987694 0.108881 
101.113075 0.004164 
101.48465 2.020741 
101.979523 0.036532 
101.986023 0.007588 
102.016647 0.231974 
102.482681 0.080074 
102.952446 0.011792 
103.429787 0.004742 
103.483337 0.030952 
104.014084 0.07869 
104.030678 0.002368 
104.334152 0.001882 
104.398979 0.003813 
106.056557 0.003738 
106.072662 0.006215 
106.496124 0.815598 
106.696609 0.00438 
106.993073 0.010441 
106.999985 37.05759 
107.493729 0.146942 
107.501762 4.441127 
107.989761 1.483941 
107.997879 12.447718 
108.001831 0.524312 
108.181648 0.002545 
108.477402 0.003222 
108.486328 0.036052 
108.493439 100.0 
108.502174 0.036738 
108.51178 0.004508 
108.531364 0.003073 
108.987099 0.238092 
108.995354 9.262963 
109.00177 0.007391 
109.064598 0.039984 
109.491341 29.138651 
109.92942 0.003648 
109.986801 0.120757 
109.992943 0.822929 
109.997726 0.006068 
110.060028 0.00759 
110.07122 0.7352 
110.096291 0.002486 
110.197655 0.005103 
110.404381 0.004488 
110.469719 0.003982 
110.489792 7.383033 
110.991493 0.06252 
110.995674 0.103521 
111.487869 0.557144 
111.491768 0.020262 
112.488541 0.276298 
112.829216 0.002574 
113.638329 0.005523 
114.007858 1.019894 
114.509529 0.05469 
114.971664 0.002077 
114.990456 0.005081 
114.997475 0.004506 
115.005814 0.293946 
115.096092 0.003631 
115.501419 3.30181 
115.653992 0.003655 
115.997765 0.021196 
116.005219 83.828209 
116.485001 0.004961 
116.499008 0.634504 
116.506943 11.498552 
117.003067 28.875648 
117.006981 1.579923 
117.012817 0.008031 
117.498695 17.634533 
117.504021 1.221081 
117.508842 0.004827 
117.897202 0.002639 
118.001503 8.073085 
118.496651 5.062093 
118.501099 0.383201 
118.507683 0.068566 
118.947296 0.004067 
118.999496 0.580726 
119.003777 0.027634 
119.495117 1.321635 
119.505737 0.002294 
119.541557 0.002701 
119.955521 0.008837 
120.000984 0.569236 
120.170128 0.004042 
120.493156 0.032687 
120.502655 0.005816 
120.999496 0.071167 
121.379181 0.004331 
121.493706 0.007585 
121.557632 0.002201 
122.286476 0.004865 
122.509277 0.006296 
122.930603 0.004622 
123.013031 2.801547 
123.507271 0.005536 
123.514648 0.339648 
124.011024 0.9501 
124.506592 0.495417 
124.51165 0.020757 
124.9916 0.002402 
125.010506 5.25897 
125.047157 0.051454 
125.277718 0.003491 
125.504768 0.056751 
125.512184 0.655408 
126.008339 1.739364 
126.043747 0.003441 
126.503998 0.050546 
126.509689 0.018856 
127.006935 0.413997 
127.358582 0.004226 
127.513214 0.271006 
128.004654 0.003994 
128.441208 0.00311 
128.511185 0.041878 
128.944977 0.002573 
129.006577 0.005057 
129.490189 0.006239 
129.553284 0.004207 
129.598633 0.005214 
129.990723 0.004838 
130.981918 0.010758 
131.85524 0.002445 
132.018356 0.065705 
132.348282 0.004459 
132.576782 0.004281 
133.016342 0.002618 
134.319977 0.003686 
134.978821 0.333486 
135.516495 0.002343 
135.745407 0.003518 
136.075653 0.072553 
136.159912 0.002567 
136.974655 0.010866 
137.059952 0.014378 
137.107315 0.003265 
137.161743 0.003129 
137.918152 0.004397 
137.999557 0.006514 
138.495438 0.020231 
138.727509 0.004765 
138.994507 0.004097 
139.493073 0.017773 
139.66481 0.003933 
139.923309 0.002756 
140.643768 0.004077 
140.731674 0.003387 
140.777328 0.006275 
140.813278 0.003003 
140.984665 0.009308 
142.363571 0.006322 
142.558304 0.003238 
144.777176 0.003318 
146.00676 0.005202 
146.735428 0.003327 
152.053192 0.004163 
152.637711 0.003734 
152.941467 0.011635 
152.971832 0.004417 
152.989319 0.123866 
153.057709 0.00336 
153.102386 0.003683 
153.760162 0.003442 
153.959061 0.01157 
154.04985 0.00254 
154.079941 0.006135 
154.086182 0.569608 
154.097153 0.010366 
154.12204 0.006516 
154.133942 0.029391 
155.089691 0.022878 
155.117889 0.032571 
155.154327 0.207931 
155.86441 0.003439 
156.076645 0.015883 
156.101898 0.217853 
156.113342 0.003187 
156.138397 0.002418 
156.157623 0.002859 
156.954422 0.00385 
157.097046 0.005096 
157.17009 0.065177 
157.951096 0.003498 
158.635086 0.003593 
161.146866 0.003669 
163.482727 0.003033 
164.639313 0.003947 
169.319199 0.004672 
169.762283 0.002647 
169.95462 0.004114 
170.539215 0.002887 
170.952057 0.046833 
171.920349 0.006105 
172.848679 0.003076 
173.512909 0.003759 
174.504013 0.002832 
175.120773 0.003959 
175.622116 0.003272 
176.609314 0.003978 
176.703156 0.004672 
178.361481 0.00329 
179.853149 0.00398 
179.899857 0.003802 
END IONS

