BEGIN IONS
PEPMASS=428.148
CHARGE=1+
COMPOUNDNAME=Roquefortine C
LIBRARYQUALITY=3
SMILES=N/A
INCHIKEY=SPWSUFUPTSJWNG-LIMLNZRCSA-N
INCHI=InChI=1S/C22H23N5O2/c1-4-21(2,3)22-10-17-18(28)25-16(9-13-11-23-12-24-13)19(29)27(17)20(22)26-15-8-6-5-7-14(15)22/h4-9,11-12,17,20,26H,1,10H2,2-3H3,(H,23,24)(H,25,28)/b16-9-/t17-,20-,22+/m0/s1
MSLEVEL=2
SOURCE_INSTRUMENT=N/A-ESI-QFT
FILENAME=library_mgf.mgf
SEQ=*..*
IONMODE=positive
ORGANISM=MONA
NAME=Roquefortine C [M+K]+
PI=MoNA
DATACOLLECTOR=MoNA:VF-NPL-QEHF016408
PUBMED=N/A
SUBMITUSER=mwang87
TAGS=
SPECTRUMID=CCMSLIB00004707471
SCANS=16408
50.453693 0.068213 
50.461174 0.079685 
50.630424 0.064677 
51.222252 0.058976 
51.87088 0.064816 
51.942444 0.051623 
52.238194 0.071161 
52.357822 0.059908 
52.429691 0.066973 
53.002602 0.056371 
54.40683 0.068623 
55.018173 0.274809 
55.054562 5.053685 
55.911114 0.066731 
56.049774 0.072027 
56.885738 0.069771 
57.033821 0.805829 
57.07019 23.42738 
57.230766 0.068832 
57.328991 0.067332 
57.559868 0.063599 
57.641682 0.07276 
58.065414 1.857227 
58.073521 0.41461 
58.175121 0.069576 
58.298737 0.072576 
58.668041 0.075765 
58.995281 4.997827 
59.049423 7.497706 
59.418274 0.069314 
59.966721 0.080559 
60.044682 0.606562 
60.080986 0.280414 
60.35051 0.070995 
61.010921 8.167689 
62.014099 0.070692 
62.545551 0.056875 
63.055763 0.079076 
64.054756 0.059304 
64.351509 0.061268 
64.45726 0.05295 
64.811821 0.051443 
64.910843 0.069401 
65.039047 0.080996 
65.417145 0.058318 
67.054428 7.698317 
67.194069 0.06889 
67.58812 0.073115 
69.033638 2.019268 
69.044876 1.696065 
69.070015 37.8242 
69.227882 0.060053 
70.065269 23.78927 
70.073357 1.740901 
70.741875 0.055172 
71.04924 0.949353 
71.085648 18.224657 
72.080879 17.702917 
72.088943 0.554106 
73.028473 0.52304 
73.046844 1.590468 
73.064842 1.318653 
73.084229 0.061328 
73.098305 0.079452 
74.096512 0.380402 
74.450272 0.064127 
74.707672 0.051056 
75.044075 3.166378 
75.720444 0.068912 
76.403687 0.065609 
77.210556 0.08573 
77.374008 0.07042 
77.606285 0.065476 
77.86824 0.078959 
78.3181 0.071749 
78.967117 7.920188 
79.021278 5.004408 
79.054291 0.521857 
81.0448 3.422366 
81.069954 5.111142 
82.052643 0.624451 
83.01281 0.070048 
83.049187 3.854027 
83.060364 0.875471 
83.085548 3.697407 
84.080894 7.298009 
84.907715 0.072035 
85.028397 2.427532 
85.039696 4.368955 
85.064842 4.319075 
85.10125 16.637749 
86.060249 0.289644 
86.096466 1.059182 
86.104523 0.432451 
87.044159 7.044506 
87.826988 0.067096 
88.039314 0.074597 
88.686134 0.069766 
89.059776 22.464769 
89.107338 2.132976 
89.849411 0.071603 
90.050407 0.076475 
90.055122 0.071048 
90.063118 0.482222 
91.054428 1.424803 
91.057449 10.403018 
91.605301 0.059076 
92.026535 0.077669 
92.855782 0.058922 
92.982803 100.0 
93.069946 2.231131 
93.982231 3.754808 
93.986046 5.227763 
94.052574 2.89866 
94.065109 0.178779 
94.978577 23.844299 
95.024109 0.082211 
95.04921 20.306784 
95.060387 4.140719 
95.085556 4.776967 
96.044464 0.59827 
96.052483 0.400147 
96.055588 0.792763 
96.068336 0.256581 
97.03981 4.734744 
97.064842 1.91281 
97.101227 2.772063 
97.167557 0.062967 
98.047783 0.069462 
98.096619 0.766963 
98.916733 0.052779 
98.975594 0.1691 
99.044136 2.382994 
99.080452 0.833014 
99.116867 0.123618 
99.591011 0.049759 
100.039291 0.167382 
100.075684 0.80328 
101.003296 7.110817 
101.006645 0.112188 
101.055923 0.175084 
101.05983 17.156548 
102.054695 0.068401 
102.063133 0.30487 
102.091484 0.20114 
102.646271 0.07682 
102.761292 0.068408 
103.039001 0.765433 
103.050316 1.049485 
103.0541 0.081946 
103.075401 0.744275 
103.773895 0.057094 
104.982941 0.108091 
105.07 1.137077 
106.040077 2.215438 
106.065117 0.787506 
106.503372 0.077596 
106.998444 39.495529 
107.048363 1.658246 
107.06044 0.613435 
107.07019 0.069146 
107.085564 1.198721 
107.938194 0.079341 
107.997841 0.065453 
108.001633 0.214333 
108.032082 0.300113 
108.055679 13.794514 
108.080826 0.102383 
108.390968 0.081246 
108.702209 0.06545 
108.994286 1.281829 
109.028282 0.061092 
109.039734 7.010491 
109.058952 0.141787 
109.06459 0.942324 
109.101212 2.338601 
110.059875 0.11291 
110.071312 1.328765 
110.096535 1.454967 
111.044121 12.33558 
111.055382 16.683323 
111.080399 0.50857 
111.116783 0.42665 
111.216354 0.063931 
112.004173 0.07626 
112.047447 0.070633 
112.058601 0.549621 
112.062889 0.696615 
113.034637 6.109343 
113.059723 1.223944 
113.884521 0.063106 
115.032585 0.096506 
115.039177 0.258105 
115.075455 1.387191 
115.123085 1.919777 
116.070877 0.18322 
116.107086 0.21026 
116.985962 0.342678 
117.054565 0.793676 
117.091454 0.075129 
117.102325 0.106345 
118.065308 0.845807 
118.086113 0.502014 
119.04908 0.691102 
119.085594 1.010867 
120.044418 3.637844 
120.055717 2.822023 
120.080887 30.814968 
120.44207 0.067678 
121.039711 0.693648 
121.064735 10.253085 
121.076416 0.097348 
121.084236 1.988962 
121.101204 2.000607 
122.071472 1.685453 
123.044098 0.102649 
123.055382 0.548268 
123.079865 1.299074 
123.116806 1.040489 
124.050575 2.18629 
124.063126 0.317758 
124.467751 0.064101 
125.034698 0.36446 
125.059761 0.950704 
125.071335 0.090092 
125.096054 0.301513 
126.066162 0.64625 
126.091545 0.081513 
127.03257 0.258619 
127.038994 0.300786 
127.050369 1.510026 
127.07547 0.972387 
127.123047 0.512053 
128.963791 0.932531 
129.054626 11.315627 
129.091431 0.163849 
130.065216 43.754639 
130.070969 0.388398 
130.086304 0.069551 
130.158966 0.113653 
130.97963 0.148962 
131.068268 6.365619 
131.073257 1.531784 
131.085464 0.146566 
132.081009 1.132512 
133.039688 7.271896 
133.051987 0.158785 
133.064575 0.46818 
133.076248 0.862691 
133.085922 7.175398 
133.101135 0.742926 
134.035309 0.070823 
134.047318 0.113969 
134.07132 3.3984 
134.089264 0.093175 
134.956161 0.17293 
134.996689 0.593699 
135.055252 0.533201 
135.080215 0.804201 
135.116837 0.933686 
135.415405 0.066392 
136.050659 4.788266 
136.075806 38.842857 
136.087067 2.404593 
136.120453 0.074783 
137.018066 0.259352 
137.023422 20.57556 
137.034454 0.212127 
137.059616 1.04362 
137.072784 0.066667 
137.079132 3.369153 
137.0961 0.249457 
137.357758 0.075877 
138.066345 0.76933 
138.091263 0.146456 
138.970871 0.09367 
139.038452 0.091592 
139.050247 0.206044 
139.07547 1.136554 
139.11171 0.611841 
139.53273 0.081813 
141.029709 0.065249 
141.055084 0.091029 
141.065872 0.098854 
141.138779 0.334266 
141.400177 0.06188 
142.065308 0.09241 
142.159256 0.33498 
142.98024 0.083136 
143.073212 8.484198 
144.044586 0.87198 
144.069916 0.086311 
144.081024 18.951519 
144.68634 0.076734 
145.039856 0.078973 
145.076096 13.967189 
145.083954 2.421723 
145.101212 0.16589 
146.023834 0.907496 
146.034882 0.09233 
146.06012 3.499612 
146.071533 0.285561 
146.0793 1.120045 
146.096359 0.084734 
146.974487 11.58792 
147.0439 0.527363 
147.055527 0.256115 
147.065292 5.216449 
147.08049 2.360707 
147.116852 0.585954 
147.974533 1.213131 
148.050613 5.763782 
148.075592 0.25403 
148.086899 0.096797 
148.972168 4.674644 
148.9785 0.082947 
149.033493 0.055989 
149.044998 0.403282 
149.058945 2.390358 
149.070831 0.088013 
149.096176 1.470843 
149.13266 0.291371 
150.066406 1.813931 
150.951141 4.526077 
150.968613 0.079579 
151.011566 0.536908 
151.039017 0.51897 
151.075241 0.743742 
152.045578 1.938339 
152.070786 0.23163 
152.967102 0.088575 
153.029587 0.906536 
153.054688 0.269928 
154.043304 0.265453 
154.06546 1.795147 
155.045151 4.410276 
155.071579 0.754706 
156.081085 7.906631 
157.043243 0.104541 
157.051315 0.074394 
157.060028 0.074413 
157.076218 1.652828 
157.08902 1.086133 
157.180466 0.072878 
157.244034 0.057015 
158.060165 2.380243 
159.091904 3.916149 
159.11731 0.08806 
160.075714 3.191888 
160.087784 0.061922 
160.095215 0.080158 
160.112106 0.158031 
160.990112 3.57825 
161.046066 0.069656 
161.059784 0.16313 
161.071106 0.244354 
161.096115 0.894838 
161.132339 0.088816 
161.83075 0.061804 
161.990295 0.266945 
162.029922 10.92548 
162.054993 0.231617 
162.066254 3.978321 
162.091263 0.088698 
162.127716 0.231737 
162.988358 0.639199 
163.050079 0.348189 
163.06163 10.451808 
163.07489 0.74647 
163.112015 0.190244 
163.131866 0.076784 
164.045578 6.693796 
164.081818 0.30294 
164.10704 0.186694 
164.96701 0.200491 
165.054947 0.740619 
165.065369 0.067179 
165.077469 0.892456 
165.09111 3.560707 
165.102341 0.183776 
165.158752 0.057715 
166.061234 0.58821 
166.086426 0.948032 
166.112198 0.072792 
166.98262 0.427434 
167.048996 0.061811 
167.055527 5.144166 
167.062485 0.083309 
167.070465 0.675791 
168.041245 0.072955 
168.06778 0.3197 
168.080841 3.424475 
168.088364 0.073552 
168.102188 0.097655 
168.961899 1.804418 
169.050812 0.070867 
169.076248 17.433945 
169.083878 0.097509 
170.060257 2.341859 
170.072571 0.081169 
170.079422 2.340484 
170.096649 4.690313 
171.055389 6.284082 
171.091904 21.053131 
171.551529 0.053703 
171.835312 0.057519 
172.063049 0.424839 
172.075775 0.560391 
172.087479 0.099196 
172.095093 3.368565 
172.11235 0.166045 
172.990097 0.535848 
173.071228 1.671624 
173.080093 0.37217 
173.096161 0.438344 
173.107468 0.319171 
174.054886 3.924863 
174.091644 0.423218 
174.12796 0.107217 
175.038025 0.09631 
175.061081 2.124784 
175.075378 1.060703 
175.086624 0.266828 
175.111923 0.180112 
176.045502 2.430567 
176.070419 1.608417 
177.054092 0.909325 
177.066376 0.315838 
177.07724 2.890218 
177.090942 0.302887 
177.112305 0.18027 
178.049103 0.109159 
178.060989 0.4825 
178.086075 0.235025 
179.043701 0.075343 
179.05629 4.758993 
179.07019 0.596187 
179.986359 0.066948 
180.022812 0.17705 
180.040237 0.481041 
180.550171 0.078074 
181.07608 0.342253 
181.085968 0.12792 
182.059341 0.300043 
182.096649 0.728798 
182.943497 0.061843 
182.977295 0.554162 
183.055466 0.518387 
183.067291 0.158598 
183.09166 0.738684 
183.104538 0.092356 
184.063034 0.200526 
184.074738 0.619942 
184.112106 1.848847 
184.34523 0.061968 
185.059311 0.064548 
185.071198 5.54236 
185.080307 0.393264 
185.097916 0.092584 
185.332748 0.066334 
185.513138 0.074979 
185.591644 0.061921 
186.055405 0.711703 
186.066208 1.039432 
186.091293 0.106061 
186.127762 0.103464 
187.061401 0.296414 
187.076935 0.192436 
187.0867 4.871533 
187.988068 2.84644 
188.045593 3.366844 
188.070251 1.545374 
188.081497 0.489929 
188.107162 12.466799 
188.385345 0.075632 
189.054092 0.348169 
189.066193 0.684167 
189.077057 2.210149 
189.091248 0.921372 
189.110535 0.904899 
189.986221 1.033384 
190.061035 6.701641 
190.085876 0.996324 
190.097458 0.446469 
191.000671 3.90778 
191.056366 24.013115 
191.070526 0.192712 
191.080551 0.07913 
191.092636 0.512217 
191.106781 0.551907 
192.001266 0.617339 
192.039902 0.180214 
192.048843 0.285782 
192.064377 27.329556 
192.075607 0.10336 
192.102951 0.086495 
192.961853 3.178371 
192.998856 0.619941 
193.00621 0.095559 
193.072281 65.938087 
193.086929 0.090052 
194.081635 76.345215 
195.054993 0.0814 
195.076996 0.094212 
196.087082 0.072724 
196.112259 4.356299 
197.071014 5.004417 
197.1073 0.910506 
198.054062 0.097724 
198.066116 0.195291 
198.078293 0.090779 
198.0914 0.200798 
198.127792 27.920265 
199.050476 0.893711 
199.076706 0.213343 
199.086761 5.80444 
199.096832 0.105867 
199.131378 7.601056 
200.058228 2.547257 
200.090744 0.401387 
200.106903 0.407311 
200.134552 1.910751 
201.065796 1.93393 
201.075851 0.091907 
201.091278 0.530779 
201.10202 1.371904 
201.138718 0.841926 
202.061752 0.108946 
202.086029 1.423991 
202.122543 0.106365 
202.142838 0.089619 
202.180725 0.106693 
202.973511 0.061332 
203.03096 0.820128 
203.056412 3.147988 
203.070862 0.277101 
203.081039 0.592997 
203.092514 0.26589 
203.106552 0.626562 
203.127594 0.627259 
204.064606 4.497357 
204.07486 0.171169 
204.101364 0.479345 
204.112488 0.393201 
204.138626 0.658389 
205.072144 29.645988 
205.084549 0.286541 
206.045959 0.089597 
206.056412 1.193993 
206.0802 31.618238 
206.978058 0.18235 
207.051407 34.246689 
207.084167 2.184637 
207.101608 0.811172 
207.876877 0.092698 
208.017822 1.357939 
208.055649 3.461118 
208.09697 32.433262 
208.108536 0.304585 
208.133606 0.26621 
208.884705 0.086009 
209.011414 0.077486 
209.067581 3.12706 
209.117386 0.076787 
210.07135 1.952076 
210.103165 0.070529 
210.127686 3.665788 
210.972107 2.107259 
211.006042 0.09227 
211.07338 1.775998 
211.085983 0.378805 
211.132217 0.098854 
212.068832 0.070721 
212.081848 1.06231 
212.107147 0.238278 
212.143631 1.159101 
213.038452 1.115907 
213.065933 7.620081 
213.091217 0.094123 
213.62114 2.094302 
213.632477 1.022435 
213.639999 0.814456 
213.643433 0.976192 
214.046417 7.476118 
214.060638 1.728815 
214.070908 0.092756 
214.086304 0.270632 
214.122818 4.935275 
215.052902 0.180518 
215.070343 0.15592 
215.08168 1.576088 
215.127472 2.306053 
215.882156 0.15829 
216.065079 0.889801 
216.076569 1.490722 
216.101929 0.16566 
216.122696 0.097357 
217.049911 0.105917 
217.071945 3.555707 
217.085083 0.652342 
217.096649 0.34351 
217.122345 0.064506 
217.287247 0.070535 
218.080185 2.473744 
218.092194 1.782648 
218.118439 0.190088 
219.05249 0.280501 
219.088043 5.470143 
219.100143 0.292739 
219.112686 0.068919 
219.148926 0.549777 
219.174423 3.464373 
220.08522 0.097869 
220.09581 3.976473 
220.178436 0.263892 
221.067291 2.168304 
221.08017 0.198212 
221.091507 0.076108 
221.117386 0.080654 
222.051102 0.20085 
222.113297 0.273617 
222.898911 0.382502 
223.049744 0.176068 
223.087448 0.080138 
224.037796 0.111285 
224.081696 1.10012 
224.144409 0.089098 
224.985184 0.087153 
225.042953 0.808 
225.065933 2.53624 
225.090088 0.511478 
225.123856 1.536309 
225.886368 0.470295 
226.062134 0.100903 
226.097626 0.846532 
226.999054 0.0843 
227.054688 0.324017 
227.069717 0.205774 
227.081589 2.071308 
227.106628 0.111209 
227.118317 0.064776 
227.154617 0.497293 
228.062668 0.379474 
228.076736 0.074139 
228.138245 0.854797 
229.03331 1.054769 
229.060455 0.092697 
229.085953 0.114639 
229.097427 2.644973 
229.896164 0.540346 
230.040909 1.623842 
230.08017 0.066591 
230.092392 1.096562 
230.117508 0.721815 
230.931168 0.057493 
231.051666 7.178525 
231.063644 0.27956 
231.076401 0.680409 
231.087784 1.002535 
231.101166 0.330823 
232.056549 0.139396 
232.096359 0.08917 
232.883942 1.746191 
233.06781 0.195854 
233.080948 0.319082 
233.103836 1.160172 
233.116684 0.705345 
233.190323 0.979903 
233.891525 17.373186 
234.102295 0.300626 
234.899628 2.397166 
235.005737 0.354706 
235.07402 0.104008 
235.097824 0.246869 
235.14444 0.235408 
235.890961 0.39593 
236.081573 0.692258 
236.105057 0.081241 
236.143311 0.520963 
237.043976 1.145672 
237.088318 0.087076 
237.124817 0.106941 
237.990768 0.076381 
238.051498 0.824331 
238.072281 0.118745 
238.097198 0.377781 
238.122833 2.99303 
238.159286 4.087969 
239.047653 0.407726 
239.059738 4.445042 
240.076981 1.137916 
240.909531 1.321008 
241.084763 0.374005 
241.133636 0.15724 
242.092545 1.561628 
242.117722 4.068667 
243.065475 0.117361 
243.101334 0.306604 
243.124054 0.407126 
244.956726 0.085632 
245.081009 0.807381 
245.912415 0.080472 
246.017715 0.308406 
246.089325 2.083378 
246.898651 0.072483 
247.001465 5.336807 
247.097412 5.230813 
247.906921 1.024904 
248.021896 1.816592 
248.081802 2.042971 
248.105164 3.930233 
248.128128 0.081737 
248.878937 0.550331 
249.029739 3.473004 
249.047165 0.094122 
249.06221 11.865466 
249.076035 0.112628 
249.088837 0.423542 
249.111603 2.342818 
250.065918 0.353318 
250.084152 0.209501 
250.097885 0.088445 
250.894257 9.16642 
251.06076 0.086346 
251.065109 0.092194 
251.069168 0.091421 
251.139313 31.173246 
251.154175 0.459689 
251.901901 0.7147 
252.076599 2.347969 
252.890442 0.75982 
253.015976 0.189055 
253.06131 0.441978 
253.085068 1.814197 
253.902405 3.974135 
254.092407 4.928468 
254.927673 0.179622 
255.00705 0.096439 
255.1008 0.134892 
255.149277 0.782054 
255.898438 0.358587 
256.072052 0.488058 
256.108124 0.100292 
256.132996 0.286305 
257.079712 0.424346 
257.09375 0.173507 
257.128571 0.100249 
257.891876 1.702127 
258.14859 0.092902 
259.097565 2.826527 
260.069061 1.724995 
260.103943 0.534161 
260.995636 1.648 
261.076599 5.258955 
261.112579 0.514136 
261.159515 0.204727 
261.988739 1.395156 
262.083527 2.394105 
262.163086 0.461284 
262.914124 2.018447 
262.986115 0.087539 
263.000153 6.107555 
263.093018 4.539138 
263.116394 0.178243 
263.139618 2.675804 
264.077057 0.308992 
264.098663 0.40597 
264.909302 8.441017 
265.000244 0.094778 
265.025543 0.081936 
265.064117 0.359749 
265.154968 2.627548 
266.032501 1.014729 
266.056335 2.201862 
266.092682 1.199125 
266.889557 0.402795 
267.040466 4.697521 
267.062836 0.614208 
267.13559 0.088135 
268.071686 2.891916 
268.119507 3.018277 
269.079346 1.81339 
269.892517 1.193817 
270.087463 4.504044 
270.900757 0.39745 
271.095947 0.346606 
271.940887 0.172754 
272.899567 0.496334 
272.937317 0.977405 
273.076843 1.500148 
273.112518 0.474825 
273.90625 0.127622 
274.084778 5.78786 
274.894196 51.626396 
274.992706 0.090323 
275.072906 0.099614 
275.092712 20.562445 
275.128235 0.084959 
275.902863 23.709545 
276.004272 0.440625 
276.075928 0.191234 
276.10022 11.184142 
276.119843 0.094881 
276.894135 5.311635 
277.071808 1.162577 
277.094116 1.409908 
277.108948 6.00202 
277.215607 0.090105 
277.902344 5.097451 
278.056 0.586621 
278.081055 0.107101 
278.101746 1.072905 
278.114685 0.112727 
278.703217 0.061951 
278.925812 0.169382 
279.006775 5.191934 
279.087097 1.175662 
279.897308 0.285193 
280.070679 1.308335 
280.108307 0.269069 
280.924683 1.143917 
281.010712 2.499973 
281.055573 2.86605 
281.075317 0.08498 
281.102356 0.127135 
281.129059 0.211807 
282.059296 0.192961 
282.087219 3.049287 
282.10083 0.410636 
282.279236 0.230312 
282.920105 6.588843 
283.048981 1.199712 
283.095428 0.131559 
283.144867 4.828159 
284.102783 4.857589 
284.902527 0.077401 
285.073517 0.081135 
286.081848 0.34143 
286.110046 0.089688 
286.129913 0.420298 
286.898468 2.48201 
286.914429 0.332929 
287.003784 3.023981 
287.092804 4.68717 
287.130096 0.071819 
287.901062 0.077486 
288.099915 0.146755 
288.126038 0.080471 
288.910065 1.00632 
288.951599 0.139109 
289.072083 12.580257 
289.108582 2.417112 
289.950806 3.466939 
290.076569 9.112919 
290.103424 1.713357 
290.909698 0.173891 
290.925873 4.754915 
290.947449 7.994407 
291.088013 0.3036 
291.110809 3.757873 
291.92746 0.868547 
291.947144 0.068431 
292.073029 0.068933 
292.097473 0.181454 
292.117554 4.746179 
292.88797 0.071182 
292.904724 5.716138 
292.925568 3.999278 
293.08902 0.100354 
293.102844 0.298362 
293.911163 0.695793 
294.013367 0.07463 
294.088135 0.095606 
294.181732 1.380888 
294.920166 2.528432 
295.059418 0.384877 
295.912384 0.418644 
295.928619 0.329336 
296.065826 0.155658 
296.101868 0.105203 
296.115082 0.351669 
296.935455 0.106429 
298.094147 2.454071 
299.096466 0.226112 
299.129395 0.07009 
300.098633 0.069733 
301.042114 0.078835 
301.072845 3.948666 
301.109039 0.252029 
302.079926 14.534781 
302.102356 1.647592 
302.926239 2.20548 
303.087158 31.293196 
303.107574 0.637805 
303.927032 0.072533 
304.083984 9.996702 
304.118103 1.335592 
304.170929 0.120502 
304.183044 0.166633 
304.925385 6.74968 
305.067993 0.141702 
305.086182 5.136554 
305.105011 0.582423 
306.098267 4.675066 
306.13446 0.372957 
306.920776 8.171167 
307.004974 0.948505 
307.064362 1.25407 
307.082672 1.481553 
307.102478 1.163958 
307.138733 0.069825 
307.921936 0.362414 
307.96167 1.335562 
308.070557 2.571038 
308.089874 1.803898 
308.110687 0.404482 
308.920135 2.605394 
308.958374 0.959253 
309.078857 0.504 
309.097229 0.206575 
309.279022 29.328871 
309.94339 1.397512 
310.08075 0.397227 
310.096069 0.276575 
310.282501 5.516651 
310.915405 4.83939 
311.102478 0.318226 
311.294708 35.849041 
311.916473 0.068753 
312.109619 1.517917 
312.917755 0.087032 
313.019867 0.360367 
313.111633 0.260338 
314.113617 0.07756 
314.909546 0.342976 
315.087921 8.855722 
316.093262 1.419642 
316.11908 2.140322 
316.904846 63.583031 
317.103363 0.168537 
317.123474 0.128817 
317.906128 14.143731 
318.077972 0.246606 
318.098206 5.708976 
318.134827 0.41336 
318.904968 12.109901 
319.084167 0.323208 
319.104065 6.136199 
319.138794 0.204969 
319.908844 0.403701 
320.078522 0.118462 
320.112671 5.643934 
320.935822 1.678978 
321.09848 0.203631 
321.1203 1.548584 
322.130096 89.215324 
322.935608 1.126748 
323.015411 0.799624 
323.133667 18.481602 
324.136627 0.594743 
324.326385 10.449008 
324.866516 0.124366 
324.887939 0.074024 
324.930573 1.910373 
325.015137 0.470684 
325.093048 0.131256 
325.329712 1.945827 
326.088806 2.438547 
326.93045 0.286836 
327.091919 0.339569 
328.079834 0.274436 
328.103577 0.201183 
328.122223 0.110596 
329.090088 1.2792 
329.111938 0.211563 
330.037689 0.106988 
330.095917 2.449959 
331.031067 1.343503 
331.082367 3.857891 
331.104431 1.318022 
331.138458 0.119947 
332.090973 0.90676 
332.113953 5.397582 
332.151184 0.230589 
333.084412 0.603852 
333.119751 4.353528 
333.816742 1.970369 
334.070343 1.57377 
334.094147 11.043705 
334.129944 38.391365 
334.165039 0.113036 
334.915466 10.931153 
335.058502 6.04968 
335.097931 10.093496 
335.135223 20.645203 
335.916504 1.713579 
335.943604 0.207511 
336.063538 9.412176 
336.109131 9.826032 
336.138733 4.142964 
336.181793 0.219438 
336.838623 1.075666 
336.915924 1.678055 
337.056122 0.938922 
337.11261 4.335784 
337.920105 0.11162 
337.939575 0.39563 
338.124573 3.088336 
338.148987 0.424911 
339.017548 0.284278 
339.053619 0.095531 
340.005646 0.501951 
340.026031 0.61617 
340.104279 0.17286 
340.130493 0.25016 
341.014221 9.271406 
341.087769 0.54422 
342.01947 0.360457 
342.09436 0.179534 
342.108795 0.189537 
342.13559 0.576438 
342.997711 0.710277 
344.113983 0.333103 
344.150604 0.576457 
346.094025 3.43357 
346.129974 17.721785 
347.100861 9.907048 
347.134674 18.110666 
348.107574 14.364686 
348.141235 10.140205 
348.953857 0.130457 
349.115356 4.187358 
349.151947 1.966883 
350.124115 1.893679 
351.109955 0.159655 
351.131989 1.859752 
351.953735 0.429438 
352.111481 0.305473 
352.164825 0.100732 
352.926025 4.764932 
353.088623 0.090168 
353.842316 0.826315 
353.927338 0.061446 
353.954987 1.462955 
355.067841 5.992573 
355.931763 0.45263 
356.039398 0.255883 
356.072113 1.078662 
356.135132 0.159186 
357.02597 0.098018 
357.08313 0.824383 
357.135895 0.935711 
357.816254 0.092143 
358.089233 1.203178 
358.112579 0.567546 
358.131958 0.112524 
359.02774 6.319737 
359.096588 0.496767 
359.154755 0.073695 
360.031677 0.917657 
360.076355 0.085069 
360.108185 4.393334 
360.146118 15.082856 
361.112549 0.205653 
361.149719 3.373754 
361.847961 0.669211 
362.125 3.286802 
362.161316 23.954863 
363.096069 2.928 
364.101654 2.513315 
364.962158 3.102961 
365.963745 0.088721 
366.856079 0.307751 
366.963501 3.45632 
367.011749 0.184246 
367.072296 0.522818 
367.127228 6.919192 
368.020477 43.590477 
368.116974 13.163798 
369.02478 8.892614 
369.12146 2.483812 
370.018494 15.009602 
371.174347 4.377141 
374.160309 0.121958 
375.827148 9.387418 
376.82959 2.939977 
378.08786 2.299068 
379.090912 5.09877 
379.127869 5.042267 
379.858826 3.998355 
380.09726 5.440035 
380.133545 4.727213 
380.859589 0.268463 
381.047577 1.705512 
381.084747 0.657082 
381.12027 0.302477 
381.143768 1.04536 
382.052124 6.763019 
382.132812 3.19847 
382.846619 0.091686 
383.045044 1.247195 
383.120728 0.379019 
384.112427 0.298768 
384.20343 0.552787 
384.888 0.101356 
386.16095 0.127181 
390.193176 2.127569 
395.181396 0.731857 
396.016205 0.114418 
398.110107 0.489875 
399.03476 0.110629 
400.029602 1.136373 
400.107574 0.115926 
400.835144 1.968983 
401.035248 0.180223 
402.03006 0.078555 
402.192474 1.635221 
402.850983 0.2206 
405.164215 0.079306 
406.847198 0.226151 
410.030975 0.097662 
410.094482 0.294893 
411.1427 0.098294 
412.17865 0.215926 
414.816589 0.41268 
418.845825 2.811967 
420.861969 2.629934 
422.876373 1.370946 
426.025635 0.346314 
426.105286 0.477699 
426.186249 0.897888 
427.033142 0.116842 
427.073639 0.948309 
427.107758 2.241587 
427.153076 0.094926 
427.184479 0.553938 
427.24649 0.427419 
427.306244 0.782801 
427.339661 4.206937 
428.041931 2.553318 
428.075195 0.407418 
428.103668 6.517968 
428.139404 1.960296 
428.169464 12.138824 
428.205658 3.633142 
428.243713 1.0552 
428.340546 0.556004 
429.108368 1.296363 
429.144073 0.228133 
429.17334 2.924595 
429.20752 0.941836 
429.285431 1.422706 
429.318817 33.740067 
430.040833 0.274978 
430.151703 1.215857 
430.18869 4.169544 
430.22464 2.758992 
430.289764 0.112268 
430.321899 3.573983 
436.151398 0.09706 
436.856415 0.494409 
438.870575 0.090319 
440.886047 0.543163 
445.429138 0.096746 
446.091736 0.944915 
446.149811 4.483328 
447.153168 0.395936 
447.347412 0.778587 
END IONS

