BEGIN IONS
PEPMASS=326.186
CHARGE=1+
COMPOUNDNAME=ERGONOVINE MALEATE
LIBRARYQUALITY=3
SMILES=N/A
INCHIKEY=WVVSZNPYNCNODU-XTQGRXLLSA-N
INCHI=InChI=1S/C19H23N3O2/c1-11(10-23)21-19(24)13-6-15-14-4-3-5-16-18(14)12(8-20-16)7-17(15)22(2)9-13/h3-6,8,11,13,17,20,23H,7,9-10H2,1-2H3,(H,21,24)/t11-,13+,17+/m0/s1
MSLEVEL=2
SOURCE_INSTRUMENT=N/A-ESI-QFT
FILENAME=library_mgf.mgf
SEQ=*..*
IONMODE=positive
ORGANISM=MONA
NAME=ERGONOVINE MALEATE [M+H]+
PI=MoNA
DATACOLLECTOR=MoNA:VF-NPL-QEHF027711
PUBMED=N/A
SUBMITUSER=mwang87
TAGS=
SPECTRUMID=CCMSLIB00004721292
SCANS=27711
51.080322 0.041794 
51.593601 0.045715 
52.240776 0.047057 
54.814014 0.048061 
55.018181 1.80494 
55.725964 0.047057 
55.934093 0.038556 
56.049767 2.315048 
56.207767 0.045325 
56.811943 0.038679 
58.065403 6.994613 
58.457844 0.039386 
59.049377 2.436158 
59.206554 0.039919 
60.719742 0.044666 
61.577824 0.038901 
63.332809 0.042563 
63.342018 0.039931 
63.526474 0.039253 
67.018501 0.042869 
67.739197 0.040447 
67.866882 0.042483 
68.008202 0.035439 
70.065163 0.139001 
70.593735 0.041492 
71.704079 0.038514 
71.952744 0.041327 
72.068283 0.049249 
72.612457 0.055074 
73.243095 0.04425 
74.047562 0.03708 
74.275124 0.044888 
74.291023 0.046211 
75.642944 0.044685 
76.075722 4.731264 
77.420288 0.039233 
78.661621 0.046885 
79.113182 0.041155 
81.151527 0.04452 
82.189095 0.043952 
82.801308 0.044177 
82.835388 0.048632 
83.057907 0.042629 
83.929184 0.041954 
84.021797 0.038265 
84.621681 0.042526 
85.781242 0.04468 
87.194443 0.03681 
89.120911 0.042436 
89.297112 0.051183 
91.791504 0.039567 
92.034248 0.04629 
92.043808 0.044002 
93.816895 0.048983 
94.005493 0.048337 
94.065163 0.150348 
94.43969 0.04192 
100.774994 0.041826 
103.415009 0.043867 
105.742348 0.043626 
106.681297 0.042477 
108.439743 0.040794 
110.692986 0.043804 
110.908272 0.044042 
111.94648 0.04741 
112.075607 2.297279 
113.060013 0.045427 
113.089432 0.044831 
115.054192 0.102085 
115.567924 0.041147 
116.522751 0.049237 
117.308281 0.044803 
117.550499 0.048963 
118.566757 0.04431 
125.689713 0.043771 
127.530907 0.045138 
127.628189 0.045133 
128.1073 0.053251 
128.113541 0.042139 
128.571198 0.044163 
129.069885 0.671439 
129.858185 0.036409 
130.065048 1.601765 
130.086273 0.287604 
130.30809 0.052055 
131.215546 0.047797 
132.29866 0.041995 
136.190674 0.037913 
138.51062 0.0461 
141.070053 0.106459 
142.065125 0.111192 
144.080887 0.510965 
146.465149 0.043718 
147.108643 0.042251 
152.062103 1.291302 
152.166397 0.043495 
153.058426 0.125091 
153.069916 12.268791 
154.065125 5.936014 
154.072617 1.044534 
154.65863 0.043622 
155.060532 0.056003 
155.068192 0.16494 
155.085464 0.152616 
156.080841 2.031327 
157.811584 0.045926 
160.508148 0.044229 
164.061829 0.053357 
164.956345 0.052042 
165.070023 3.232721 
166.065308 0.255089 
166.341248 0.045578 
167.072968 13.552892 
167.085312 2.35117 
168.08139 6.629607 
168.088821 0.086856 
169.083984 0.323856 
169.231598 0.043451 
169.265778 0.051283 
170.096542 0.345437 
172.745316 0.041276 
174.490845 0.053299 
175.343765 0.047571 
175.569763 0.054608 
177.971756 0.049245 
178.065262 1.160552 
179.073013 2.898355 
180.08078 95.805054 
180.335922 0.040858 
181.064987 5.256345 
181.075562 0.899579 
181.084381 7.836164 
182.069351 0.300746 
182.083878 14.630882 
182.096436 13.033697 
183.087418 1.637748 
183.099762 1.594739 
183.467422 0.054362 
183.484772 0.054341 
185.700897 0.044954 
185.761871 0.04038 
190.065155 10.152244 
191.073044 32.973076 
192.081055 24.157215 
193.076019 9.091058 
193.085831 2.733914 
194.060043 2.612493 
194.082443 0.662966 
194.096512 12.798891 
195.091492 0.844085 
195.103821 3.902935 
196.089554 0.050437 
196.099487 1.732273 
196.111954 4.142415 
197.107376 19.835018 
198.110855 2.541039 
204.081177 0.071169 
205.076019 0.619637 
206.060013 0.160571 
206.083847 2.258652 
206.096298 1.274716 
207.068054 53.78054 
207.091736 63.298706 
208.075958 100.0 
208.099579 58.029209 
209.079193 12.921161 
209.102493 7.410421 
210.428848 0.052995 
211.490417 0.054515 
220.019409 0.285383 
220.021942 0.282538 
220.075821 0.839689 
220.099396 1.897256 
220.110535 0.047858 
221.10733 12.604655 
222.115158 4.52778 
223.086823 0.175827 
223.122925 42.988998 
224.094421 4.009057 
224.126495 5.857023 
225.101349 1.654477 
228.768661 0.045824 
232.526031 0.044343 
233.107208 0.054448 
236.094086 0.160697 
237.138397 0.357664 
251.118484 0.058347 
251.362396 0.046394 
251.495743 0.050027 
252.358673 0.053105 
254.104294 0.050031 
255.632919 0.045468 
257.885437 0.058747 
258.2211 0.060027 
263.779541 0.052787 
265.132812 0.062354 
268.712708 0.043433 
269.873413 0.040857 
271.544739 0.047512 
278.222015 0.051527 
304.065674 0.048682 
304.393127 0.043299 
310.964264 0.051669 
315.253113 0.046161 
322.756897 0.045805 
327.125946 0.046839 
332.348572 0.047782 
334.531464 0.048674 
END IONS

