BEGIN IONS
PEPMASS=804.489
CHARGE=1+
COMPOUNDNAME=MoNA:605763 Tacrolimus
LIBRARYQUALITY=3
SMILES=N/A
INCHIKEY=QJJXYPPXXYFBGM-LJIGMGMYSA-N
INCHI=InChI=1S/C44H69NO12/c1-10-13-31-19-25(2)18-26(3)20-37(54-8)40-38(55-9)22-28(5)44(52,57-40)41(49)42(50)45-17-12-11-14-32(45)43(51)56-39(29(6)34(47)24-35(31)48)27(4)21-30-15-16-33(46)36(23-30)53-7/h10,19,21,26,28-34,36-40,46-47,52H,1,11-18,20,22-24H2,2-9H3/b25-19-,27-21+/t26-,28+,29+,30-,31+,32-,33+,34-,36+,37-,38-,39+,40+,44+/m0/s1
MSLEVEL=2
SOURCE_INSTRUMENT=LC-ESI-QFT-LC-ESI-QFT
FILENAME=output_mgf.mgf
SEQ=*..*
IONMODE=
ORGANISM=MONA
NAME=MoNA:605763 Tacrolimus [M+H]+
PI=MoNA
DATACOLLECTOR=MoNA
PUBMED=N/A
SUBMITUSER=mwang87
TAGS=
SPECTRUMID=CCMSLIB00000572393
SCANS=9644
56.0495 23.154945 
57.0335 0.279042 
57.0699 0.263031 
59.0492 0.61897 
63.0229 1.472799 
65.0386 34.447759 
66.0464 2.673008 
67.0179 1.432067 
67.0542 22.60857 
68.0257 0.21752 
68.0496 0.621493 
68.9971 1.090679 
69.0335 3.458437 
69.0573 1.196916 
69.0699 0.90959 
71.0127 2.16763 
71.0491 1.292958 
77.0386 8.368113 
78.0464 4.976004 
79.0542 41.267584 
80.0494 0.29354 
80.0621 0.867583 
81.0335 7.212433 
81.0699 5.782277 
82.0289 0.174823 
82.0414 0.950268 
82.0652 1.747938 
83.0491 1.349276 
84.0808 41.279347 
85.0284 0.177452 
85.0649 1.31967 
89.0386 1.01134 
91.0543 100.0 
92.0621 1.391468 
93.0699 6.26952 
94.0414 2.130749 
94.0653 0.184594 
95.0492 44.969802 
96.057 0.596188 
97.0284 0.248241 
97.0649 0.35177 
101.0596 0.149996 
102.0464 1.709702 
103.0543 13.815083 
104.062 3.283561 
105.0448 24.077599 
105.07 25.250989 
106.0416 0.172247 
107.0492 2.139856 
107.0856 1.621229 
108.0569 0.284087 
109.0285 22.957499 
109.0649 3.224455 
111.0441 0.333794 
115.0543 37.447074 
116.0621 6.570972 
117.0699 11.18809 
118.0777 0.310932 
119.0491 0.602826 
119.0606 0.309153 
119.0856 5.124009 
121.0649 1.800167 
126.0465 0.748441 
127.0542 2.911611 
128.0621 44.789509 
129.0699 18.01989 
130.0778 2.72922 
131.0492 2.365103 
131.0855 2.886572 
132.057 0.370623 
133.0649 0.925229 
135.0443 0.321341 
135.0807 0.330528 
139.0544 0.724066 
140.0618 0.164096 
141.0699 25.850576 
142.0778 6.481065 
143.0857 2.796 
144.057 0.626272 
144.0934 0.325881 
145.0649 4.635094 
145.1015 0.33937 
147.0804 0.21513 
152.0621 9.164827 
153.07 11.38774 
154.0778 2.985879 
155.0604 5.999797 
155.0856 6.325599 
156.0936 0.617589 
157.0647 1.19843 
157.1012 0.274794 
158.0723 0.165211 
159.0806 0.577495 
165.07 15.430496 
166.0779 2.730734 
167.0855 3.122678 
168.057 0.838375 
168.093 0.566104 
169.0652 1.299649 
169.1012 0.34723 
171.0802 0.226123 
176.0619 0.266616 
177.0698 0.743954 
178.0778 7.816268 
179.0856 2.634055 
180.0936 0.245692 
181.0648 1.516558 
181.1013 0.275591 
182.0726 0.232071 
183.0804 0.261996 
189.0699 2.565895 
190.0778 1.117763 
191.0857 1.905688 
192.0934 0.89796 
193.1013 0.178647 
194.0732 0.223122 
195.08 0.218476 
202.0779 1.818223 
203.0854 1.526223 
204.0935 0.255888 
205.0649 0.19179 
205.1011 0.376464 
207.0802 0.233558 
215.0857 1.043495 
216.0937 0.287061 
229.1017 0.233876 
END IONS

