BEGIN IONS
PEPMASS=245.093
CHARGE=0+
COMPOUNDNAME=N-ACETYL-D-TRYPTOPHAN
LIBRARYQUALITY=1
SMILES=O=C([C@@H](Cc1c[nH]c2c1cccc2)NC(C)=O)O
INCHIKEY=DZTHIGRZJZPRDV-GFCCVEGCSA-N
INCHI=N/A
MSLEVEL=2
SOURCE_INSTRUMENT=LC-ESI-Q-Exactive Plus
FILENAME=IROA_PLATE_neg_1_H.mzXML
SEQ=*..*
IONMODE=Negative
ORGANISM=GNPS-EMBL-MCF
NAME=N-ACETYL-D-TRYPTOPHAN M-H
PI=Alexandrov Theodore
DATACOLLECTOR=Prasad
PUBMED=439917
SUBMITUSER=pphapale
TAGS=
SPECTRUMID=CCMSLIB00000578154
SCANS=2265
58.028381 157343.9375 
60.888893 2192.668213 
67.028702 2148.14502 
70.028351 179445.140625 
72.007515 16218.145508 
72.044022 47825.402344 
72.124405 7468.01123 
74.023285 830655.6875 
75.026611 3642.443359 
94.803116 2027.756348 
96.728745 2285.074951 
98.023392 160155.734375 
98.512108 2193.740723 
116.034088 274833.90625 
116.049141 150726.9375 
116.057526 4031.491699 
117.03759 3382.224365 
117.052597 4666.809082 
119.015541 3649.4646 
129.057236 3355.078369 
130.065247 24850.585938 
142.065186 26266.476562 
159.091797 51252.570312 
173.05983 2385.342529 
180.988617 9168.894531 
182.647537 2051.648193 
183.091721 22279.480469 
186.055527 19776.601562 
201.102905 103848.898438 
202.106445 2526.172363 
202.135345 2181.493896 
203.082108 806695.625 
204.085648 50928.171875 
217.10051 3346.140381 
233.975739 2418.131104 
245.093353 232579.921875 
246.09668 13924.53125 
255.505341 2224.769043 
END IONS

