BEGIN IONS
PEPMASS=345.0
CHARGE=1+
COMPOUNDNAME=MoNA:2596428 Gibberelate
LIBRARYQUALITY=3
SMILES=N/A
INCHIKEY=IXORZMNAPKEEDV-OBDJNFEBSA-N
INCHI=InChI=1S/C19H22O6/c1-9-7-17-8-18(9,24)5-3-10(17)19-6-4-11(20)16(2,15(23)25-19)13(19)12(17)14(21)22/h4,6,10-13,20,24H,1,3,5,7-8H2,2H3,(H,21,22)/t10-,11+,12-,13-,16-,17+,18+,19-/m1/s1
MSLEVEL=2
SOURCE_INSTRUMENT=LC-ESI-QQ-LC-ESI-QQ
FILENAME=output_mgf.mgf
SEQ=*..*
IONMODE=
ORGANISM=MONA
NAME=MoNA:2596428 Gibberelate [M-H]-
PI=MoNA
DATACOLLECTOR=MoNA
PUBMED=N/A
SUBMITUSER=mwang87
TAGS=
SPECTRUMID=CCMSLIB00000572199
SCANS=9450
50.478 0.951503 
65.725 2.657787 
66.637 0.974727 
74.827 1.803279 
75.66 1.067623 
82.701 15.491803 
84.329 2.176913 
104.348 6.912568 
105.238 0.987022 
106.795 1.165301 
113.861 2.056694 
122.098 1.220628 
123.139 2.261612 
124.213 1.469262 
142.748 100.0 
147.186 2.187842 
153.827 1.191257 
154.86 1.202869 
161.081 13.169399 
162.512 1.491803 
163.525 1.293033 
166.798 2.493852 
170.798 1.57377 
173.703 1.114754 
178.679 1.148907 
179.403 2.254781 
181.152 1.718579 
183.126 2.987022 
197.098 1.236339 
200.486 5.414617 
202.225 1.847678 
203.173 1.135929 
206.401 7.663934 
208.795 1.439891 
209.442 1.44877 
210.69 1.494536 
219.032 1.430328 
219.735 1.895492 
221.158 51.571038 
226.996 25.218579 
229.474 1.534836 
234.905 1.467213 
238.805 5.693306 
239.625 1.092896 
242.586 4.339481 
249.508 1.073087 
250.563 1.052596 
258.66 2.840164 
259.562 1.54235 
267.63 1.708333 
268.507 1.273907 
277.625 5.044399 
281.252 1.083333 
286.285 1.013661 
287.43 1.146175 
296.298 1.078552 
306.797 2.449454 
315.057 1.045765 
315.832 3.344262 
316.346 1.177596 
317.162 1.218579 
325.094 1.811475 
325.811 1.325137 
334.381 1.284836 
345.521 5.046448 
354.788 3.004781 
363.482 1.709699 
364.385 1.727459 
365.275 1.378415 
373.806 1.601093 
380.542 0.998634 
END IONS

