BEGIN IONS
PEPMASS=363.117
CHARGE=1+
COMPOUNDNAME=(4R,6S,8S,9Z,11E)-16-chloro-17,19-dihydroxy-4-methyl-3,7-dioxatricyclo[13.4.0.0?,?]nonadeca-1(15),9,11,16,18-pentaene-2,13-dione
LIBRARYQUALITY=3
SMILES=N/A
INCHIKEY=WYZWZEOGROVVHK-RPJJWQTDSA-N
INCHI=InChI=1S/C18H17ClO6/c1-9-6-15-14(25-15)5-3-2-4-10(20)7-11-16(18(23)24-9)12(21)8-13(22)17(11)19/h2-5,8-9,14-15,21-22H,6-7H2,1H3/b4-2+,5-3-/t9-,14+,15+/m1/s1
MSLEVEL=2
SOURCE_INSTRUMENT=N/A-Linear Ion Trap
FILENAME=library_mgf.mgf
SEQ=*..*
IONMODE=negative
ORGANISM=MONA
NAME=(4R,6S,8S,9Z,11E)-16-chloro-17,19-dihydroxy-4-methyl-3,7-dioxatricyclo[13.4.0.0?,?]nonadeca-1(15),9,11,16,18-pentaene-2,13-dione M-H
PI=MoNA
DATACOLLECTOR=MoNA:VF-NPL-LTQ005424
PUBMED=N/A
SUBMITUSER=mwang87
TAGS=
SPECTRUMID=CCMSLIB00004689030
SCANS=4651
147.020004 2.541289 
156.910004 6.881905 
171.009995 3.988356 
174.949997 7.226565 
193.050003 2.722371 
208.970001 16.161224 
210.990005 33.50227 
215.020004 11.199736 
222.970001 10.335559 
223.940002 100.0 
235.059998 6.46522 
238.949997 5.31933 
246.940002 21.912857 
248.949997 12.31142 
251.039993 14.259915 
255.009995 15.467299 
260.929993 16.379063 
274.950012 18.889141 
276.970001 40.835621 
281.059998 18.500902 
283.059998 78.607666 
293.01001 2.327005 
299.049988 31.885868 
304.040009 4.616951 
309.070007 28.192385 
317.019989 10.773713 
END IONS

