BEGIN IONS
PEPMASS=914.526
CHARGE=1+
COMPOUNDNAME=Pesticide4_Avermectin B1b_C48H72O14_(1'R,2S,4'S,5S,6R,8'R,10'E,12'S,13'S,14'E,16'E,20'R,21'R,24'S)-6-[(2S)-2-Butanyl]-21',24'-dihydroxy-5,11',13',22'-tetramethyl-2'-oxo-5,6-dihydrospiro[pyran-2,6'-[3,7,19]trioxatetracyclo[15.6.1.1~4,8~.0~20,24~]pentacosa[10,14,16,22]tetraen]-12'-yl 2,6-dideoxy-4-O-(2,6-dideoxy-3-O-methyl-alpha-L-arabino-hexopyranosyl)-3-O-methyl-alpha-L-arabino-hexopyranoside
LIBRARYQUALITY=1
SMILES=CCC(C)C1C(C=CC2(O1)CC3CC(O2)CC=C(C(C(C=CC=C4COC5C4(C(C=C(C5O)C)C(=O)O3)O)C)OC6CC(C(C(O6)C)OC7CC(C(C(O7)C)O)OC)OC)C)C
INCHIKEY=RRZXIRBKKLTSOM-XPNPUAGNSA-N
INCHI=InChI=1S/C48H72O14/c1-11-25(2)43-28(5)17-18-47(62-43)23-34-20-33(61-47)16-15-27(4)42(26(3)13-12-14-32-24-55-45-40(49)29(6)19-35(46(51)58-34)48(32,45)52)59-39-22-37(54-10)44(31(8)57-39)60-38-21-36(53-9)41(50)30(7)56-38/h12-15,17-19,25-26,28,30-31,33-45,49-50,52H,11,16,20-24H2,1-10H3/b13-12+,27-15+,32-14+/t25-,26-,28-,30-,31-,33+,34-,35-,36-,37-,38-,39-,40+,41-,42-,43+,44-,45+,47+,48+/m0/s1
MSLEVEL=2
SOURCE_INSTRUMENT=-Q-Exactive Plus Orbitrap Res 14k
FILENAME=Pesticide_Mix4_pos_14k.mzXML
SEQ=*..*
IONMODE=positive
ORGANISM=GNPS-COLLECTIONS-PESTICIDES-POSITIVE
NAME=Pesticide4_Avermectin B1b_C48H72O14_(1'R,2S,4'S,5S,6R,8'R,10'E,12'S,13'S,14'E,16'E,20'R,21'R,24'S)-6-[(2S)-2-Butanyl]-21',24'-dihydroxy-5,11',13',22'-tetramethyl-2'-oxo-5,6-dihydrospiro[pyran-2,6'-[3,7,19]trioxatetracyclo[15.6.1.1~4,8~.0~20,24~]pentacosa[10,14,16,22]tetraen]-12'-yl 2,6-dideoxy-4-O-(2,6-dideoxy-3-O-methyl-alpha-L-arabino-hexopyranosyl)-3-O-methyl-alpha-L-arabino-hexopyranoside M+ACN+H
PI=Dorrestein/Touboul
DATACOLLECTOR=lfnothias
PUBMED=n/a
SUBMITUSER=mwang87
TAGS=
SPECTRUMID=CCMSLIB00001058860
SCANS=4284
71.049828 28985.007812 
73.065201 78701.445312 
77.038857 5550.490723 
79.054237 81524.71875 
81.07016 118832.007812 
82.065208 12586.116211 
83.04921 12646.867188 
84.044411 135843.71875 
84.081108 42678.796875 
85.06517 44393.613281 
87.044281 8197.885742 
91.054558 40622.800781 
93.069496 89806.570312 
94.065437 489519.3125 
94.071548 10060.296875 
95.049232 375476.53125 
95.085114 45730.363281 
96.080757 86384.28125 
97.064674 74682.75 
97.100937 6347.464355 
98.059784 59250.5625 
98.09597 7187.393555 
99.080177 78968.96875 
100.075478 11352.554688 
105.069366 67647.546875 
107.049301 10850.675781 
107.085037 53395.5 
109.065041 45993.417969 
109.100769 115822.421875 
110.06031 321017.25 
110.068062 8759.084961 
112.075424 3050982.25 
113.059814 497728.75 
113.079277 9345.171875 
113.769104 5862.376953 
119.085976 60945.796875 
121.064903 41869.074219 
121.101433 110406.109375 
123.080971 45334.84375 
123.117226 191239.453125 
126.090767 187797.5 
127.075623 9364.462891 
128.062363 27443.710938 
129.070374 25120.777344 
131.08548 15164.501953 
131.998459 5867.476074 
133.065048 8230.698242 
133.101456 42653.0 
135.080856 27262.242188 
135.116608 12320.405273 
136.075195 35168.027344 
141.070328 10426.228516 
142.077026 18562.105469 
142.086639 411049.40625 
143.086151 257098.875 
144.101471 2437988.25 
145.064529 31205.0 
145.086075 26517.544922 
145.102661 32429.027344 
147.080658 8138.879883 
151.112488 84206.929688 
152.070679 57122.390625 
154.08577 2692442.5 
155.088501 12589.417969 
156.093643 87044.289062 
157.101166 14556.837891 
158.073151 7677.729492 
159.080826 14513.310547 
159.116989 24378.160156 
161.096191 15258.862305 
161.133057 9536.389648 
163.075027 29023.128906 
165.070465 11866.095703 
166.078888 35295.527344 
169.101791 7660.57666 
171.07962 30773.943359 
171.117722 325900.53125 
173.096725 8548.992188 
175.149673 14409.763672 
179.086716 12124.69043 
180.100311 8169.762695 
181.101746 31202.273438 
182.071976 24589.607422 
183.080505 7922.389648 
184.099197 78013.398438 
186.113403 2350947.75 
187.114624 22701.472656 
188.106674 6583.749512 
193.159119 190623.625 
197.096603 32974.808594 
199.111786 1030373.5625 
200.115036 8316.084961 
206.119446 6689.428223 
209.095749 8566.851562 
217.120468 8131.286133 
224.128708 12138.849609 
224.351669 6386.583984 
225.092834 102497.898438 
243.102341 132558.484375 
245.117783 13208.447266 
248.5905 6611.225098 
251.13797 5910.103027 
261.111084 46836.476562 
266.137878 56858.808594 
270.19519 6846.120605 
287.202484 30309.226562 
288.206909 27987.681641 
289.216644 9764.719727 
298.166168 374468.21875 
298.200836 6443.266602 
305.209015 38828.425781 
317.306458 5865.472656 
330.192535 46404.164062 
447.345062 38968.355469 
448.351929 7887.540039 
549.320862 11737.839844 
558.420776 7934.116211 
600.42981 13564.649414 
638.289612 6915.011719 
END IONS

