BEGIN IONS
PEPMASS=176.104
CHARGE=1+
COMPOUNDNAME=Massbank:PB000435 Citrulline|2-amino-5-(carbamoylamino)pentanoic acid
LIBRARYQUALITY=3
SMILES=C(CC(C(=O)O)N)CNC(=O)N
INCHIKEY=RHGKLRLOHDJJDR-UHFFFAOYSA-N
INCHI=1S/C6H13N3O3/c7-4(5(10)11)2-1-3-9-6(8)12/h4H,1-3,7H2,(H,10,11)(H3,8,9,12)
MSLEVEL=2
SOURCE_INSTRUMENT=ESI-LC-ESI-QTOF
FILENAME=Massbank_ESI_positive_8_1_2014_peaks.mgf
SEQ=*..*
IONMODE=Positive
ORGANISM=MASSBANK
NAME=Massbank:PB000435 Citrulline|2-amino-5-(carbamoylamino)pentanoic acid [M+H]+
PI=Putative Massbank Match
DATACOLLECTOR=Massbank
PUBMED=N/A
SUBMITUSER=mwang87
TAGS=
SPECTRUMID=CCMSLIB00000221746
SCANS=10397
68.051 77.239 
70.066 10000.0 
71.056 96.642 
86.061 233.467 
96.046 99.546 
113.071 2231.322 
114.055 344.148 
115.088 74.818 
116.073 179.988 
159.078 91.018 
END IONS

