BEGIN IONS
PEPMASS=343.115
CHARGE=1+
COMPOUNDNAME=Mycophenolic Acid
LIBRARYQUALITY=3
SMILES=N/A
INCHIKEY=HPNSFSBZBAHARI-RUDMXATFSA-N
INCHI=InChI=1S/C17H20O6/c1-9(5-7-13(18)19)4-6-11-15(20)14-12(8-23-17(14)21)10(2)16(11)22-3/h4,20H,5-8H2,1-3H3,(H,18,19)/b9-4+
MSLEVEL=2
SOURCE_INSTRUMENT=N/A-ESI-QFT
FILENAME=library_mgf.mgf
SEQ=*..*
IONMODE=positive
ORGANISM=MONA
NAME=Mycophenolic Acid [M+Na]+
PI=MoNA
DATACOLLECTOR=MoNA:VF-NPL-QEHF004796
PUBMED=N/A
SUBMITUSER=mwang87
TAGS=
SPECTRUMID=CCMSLIB00004695859
SCANS=4796
50.248447 0.500198 
50.777332 0.323911 
50.874073 0.176534 
51.013641 0.245951 
51.034264 0.112825 
52.146481 0.139337 
52.509689 0.330256 
53.697018 0.550021 
53.962875 0.081361 
54.056934 0.24498 
54.466122 0.23703 
54.781036 0.543971 
54.790245 0.342686 
54.824905 0.273372 
55.18359 0.156007 
55.212341 0.559331 
55.48484 0.087315 
55.589294 0.165163 
55.615726 0.202409 
55.882133 0.648644 
56.166374 0.537694 
56.553932 0.575091 
56.607822 0.378862 
57.123844 0.094814 
57.405273 0.483749 
57.520123 0.073732 
57.714611 0.150193 
57.939495 0.13755 
58.297272 0.084953 
58.592346 0.234836 
58.893833 0.152885 
59.099247 0.638117 
59.153568 0.1941 
59.26133 0.138437 
60.179581 0.077368 
60.253082 0.216344 
60.320736 0.279626 
60.404518 0.084178 
60.444054 0.223751 
60.720299 0.480739 
60.915668 0.491277 
61.094368 0.171574 
61.118591 0.140916 
61.148613 0.10002 
61.226444 0.473197 
61.776134 0.104943 
62.185661 0.090721 
62.474495 0.191069 
63.212109 0.103028 
63.318813 0.443918 
63.351654 0.085772 
63.35955 0.572238 
63.975704 0.357772 
64.063126 0.1425 
64.204857 0.255807 
64.279991 0.114469 
64.747818 0.093387 
65.971565 0.163921 
66.103493 0.492104 
66.275444 0.403021 
67.206223 0.12747 
67.245369 0.098492 
67.469925 0.164879 
67.818672 0.387927 
68.110733 0.101416 
68.636139 0.203789 
70.532578 0.069789 
70.938637 0.276393 
70.989059 0.52356 
71.113647 0.099055 
71.16935 0.38541 
71.181091 0.203697 
71.378746 0.467749 
71.509056 0.099559 
71.592636 0.313911 
71.650528 0.483965 
71.762253 0.298005 
73.402069 0.42125 
73.602943 0.264261 
73.620766 0.266199 
74.45079 0.218931 
74.651123 0.112287 
74.665428 0.591786 
75.313576 0.336374 
77.495171 0.249577 
78.057487 0.276974 
78.824516 0.626054 
80.60627 0.515977 
81.113358 0.090546 
81.475365 0.110301 
82.631851 0.235369 
83.222298 0.250582 
84.177345 0.137503 
85.099464 0.109324 
85.64933 0.104199 
85.672234 0.688378 
86.065315 0.561482 
86.194038 0.404866 
86.256134 0.620633 
88.67881 0.114827 
89.060326 0.930715 
89.112053 0.377411 
89.427429 0.578665 
89.688126 0.221476 
89.789047 0.090563 
90.292244 0.424843 
90.553581 0.323358 
91.489815 0.481709 
91.604996 0.268087 
92.240837 0.576981 
92.448151 0.221696 
92.646103 0.241028 
93.260056 0.553875 
96.903236 0.159903 
97.341881 0.615187 
97.937004 0.081135 
98.025391 0.299168 
99.56601 0.106575 
100.443565 0.101433 
100.501007 0.129035 
100.667274 0.408147 
102.023865 0.148692 
102.939789 0.347986 
102.981682 0.169603 
104.415154 0.247939 
104.573532 0.22405 
105.484703 0.336929 
106.375275 0.130554 
106.417915 0.607436 
106.68145 0.322277 
107.488373 0.082118 
107.730957 0.16138 
107.977142 0.649915 
108.31086 0.241458 
109.100189 0.619523 
110.309196 0.126074 
110.73835 0.460054 
111.352264 0.076174 
112.44735 0.117879 
112.865791 0.280665 
112.928825 0.175228 
113.103546 0.618783 
113.634819 0.762033 
115.565079 0.398329 
116.938545 0.394236 
117.480591 0.185974 
117.89389 0.630711 
118.007973 0.656796 
119.14502 0.146186 
121.218307 0.686915 
122.342209 0.088446 
122.496887 0.521547 
123.211304 0.171243 
123.404816 0.595097 
124.22084 0.534689 
124.320496 0.080386 
124.411346 0.273516 
124.461227 0.413418 
126.664673 0.146531 
127.087616 0.54284 
130.287979 0.429128 
131.03717 0.4949 
132.234604 0.146084 
137.377472 0.079693 
137.901199 0.150362 
137.911545 0.342691 
138.446198 0.544926 
139.952271 0.321053 
141.372925 0.240074 
143.455994 0.162584 
144.568619 0.468736 
145.799454 0.178065 
146.18544 0.094241 
149.491714 0.56191 
149.837524 0.110849 
150.347336 0.452119 
151.502975 0.14252 
151.856964 0.553924 
152.003738 0.437397 
155.848984 0.130479 
158.036972 0.478525 
158.277237 0.074649 
158.355377 0.086262 
158.560577 0.1048 
159.074631 0.49133 
159.518173 0.431262 
160.287979 0.347386 
161.234756 0.153269 
161.978195 0.397637 
162.279785 0.168912 
163.734924 0.387531 
164.051804 0.112527 
164.356354 0.663091 
165.714478 0.185935 
166.545654 0.427798 
170.201874 0.408718 
173.420456 0.181404 
174.752106 0.234703 
174.993973 0.090051 
175.300201 0.095443 
177.074097 0.507389 
179.457611 0.578844 
180.308411 0.095351 
180.343994 0.233118 
182.318497 0.586566 
184.631714 0.608075 
186.042419 0.540478 
189.848862 0.626243 
189.996704 0.157201 
191.849838 0.694783 
192.115372 0.094728 
194.682968 0.619293 
195.801483 0.639876 
196.828964 0.74867 
199.036652 1.347447 
201.99675 0.112717 
202.991226 0.60952 
206.103058 0.364298 
206.34729 0.160778 
206.604309 0.146769 
207.065674 0.109786 
210.181992 0.118734 
214.677612 24.51519 
216.834 0.230911 
219.227966 0.526181 
219.850708 0.650578 
220.065521 0.136279 
221.045334 0.172439 
224.137115 0.181295 
227.990753 0.554737 
228.079361 0.098978 
229.047195 100.0 
230.050552 7.898231 
232.039566 0.308212 
232.058014 0.106611 
232.305374 0.183028 
235.685898 0.309145 
237.720383 0.619337 
237.935745 0.169608 
237.961761 0.596027 
241.727509 0.13151 
243.418121 0.628498 
246.23056 0.316683 
246.378113 0.272859 
247.057922 0.450678 
249.713303 0.15469 
256.61618 0.110914 
257.609497 0.328464 
261.092285 0.394179 
263.207153 0.275766 
265.232666 0.546489 
266.796051 0.589127 
267.472168 0.086944 
268.862946 0.558808 
269.86908 0.65984 
270.047729 0.32912 
270.902863 0.26069 
276.746246 0.417003 
280.531738 0.125539 
282.101257 0.280235 
282.184357 0.429289 
285.441864 0.082222 
285.493805 0.157156 
286.324524 0.591093 
287.575592 0.185117 
291.697388 0.175052 
292.085571 0.598979 
295.536102 0.224331 
300.626373 0.644679 
300.80957 0.464551 
303.212982 0.103394 
305.595306 0.103623 
308.233032 0.333919 
309.186279 0.614914 
313.786133 0.26057 
315.345276 0.610745 
318.038666 0.133329 
327.530884 0.382684 
328.094604 0.130003 
343.115143 19.238367 
346.991058 0.143302 
348.358856 0.355517 
349.405243 0.422679 
353.732697 0.425199 
355.263763 0.154367 
363.269958 0.400429 
367.185059 0.573977 
END IONS

