BEGIN IONS
TITLE=Scan Number: 356
PEPMASS=924.51703
CHARGE=1+
COMPOUNDNAME=Amphotericin B
LIBRARYQUALITY=3
SMILES=C[C@H]1/C=C/C=C/C=C/C=C/C=C/C=C/C=C/[C@@H](C[C@H]2[C@@H]([C@H](C[C@](O2)(C[C@H](C[C@H]([C@@H](CC[C@H](C[C@H](CC(=O)O[C@H]([C@@H]([C@@H]1O)C)C)O)O)O)O)O)O)O)C(=O)O)O[C@H]3[C@H]([C@H]([C@@H]([C@H](O3)C)O)N)O
INCHIKEY=APKFDSVGJQXUKY-INPOYWNPSA-N
INCHI=InChI=1S/C47H73NO17/c1-27-17-15-13-11-9-7-5-6-8-10-12-14-16-18-34(64-46-44(58)41(48)43(57)30(4)63-46)24-38-40(45(59)60)37(54)26-47(61,65-38)25-33(51)22-36(53)35(52)20-19-31(49)21-32(50)23-39(55)62-29(3)28(2)42(27)56/h5-18,27-38,40-44,46,49-54,56-58,61H,19-26,48H2,1-4H3,(H,59,60)/b6-5+,9-7+,10-8+,13-11+,14-12+,17-15+,18-16+/t27-,28-,29-,30+,31+,32+,33-,34-,35+,36+,37-,38-,40+,41-,42+,43+,44-,46-,47+/m0/s1
MSLEVEL=2
SOURCE_INSTRUMENT=LC-ESI-qTof
FILENAME=f.amcaraballor/20150108/20150108_COCULTURE_mzXML/AmpB_Red_P1-A-2_01_17968.mzXML;
SEQ=*..*
NOTES=
IONMODE=Positive
ORGANISM=GNPS-LIBRARY
NAME=Amphotericin B M+H
SPECTRUMID=CCMSLIB00000424808
ACTIVATION=CID
INSTRUMENT=ion trap
SCANS=356
133.082123 396.0 
143.096939 868.0 
145.110672 1016.0 
147.091248 1032.0 
149.077286 788.0 
151.084351 1672.0 
153.075439 472.0 
155.092133 1264.0 
157.106934 1188.0 
159.119461 808.0 
161.074142 416.0 
163.088242 444.0 
165.094482 632.0 
166.092072 352.0 
167.085052 2704.0 
169.106781 1136.0 
170.111664 552.0 
171.088531 824.0 
172.095261 412.0 
173.105652 652.0 
175.084167 2296.0 
179.090088 604.0 
181.102448 1308.0 
183.105988 372.0 
185.093521 1972.0 
186.097687 364.0 
187.104797 348.0 
189.102127 776.0 
191.108719 784.0 
192.09967 372.0 
193.094299 5420.0 
194.103226 560.0 
195.115845 876.0 
196.131287 424.0 
199.100143 336.0 
201.099762 752.0 
205.106201 752.0 
207.116394 1276.0 
208.12883 400.0 
209.125626 1148.0 
211.105179 4496.0 
212.106384 800.0 
213.104294 556.0 
215.109283 1620.0 
217.096222 1252.0 
219.110504 992.0 
221.133026 1232.0 
223.123489 560.0 
225.124634 636.0 
227.111221 724.0 
229.111908 3332.0 
230.116272 436.0 
231.114944 1200.0 
233.126221 1064.0 
235.111649 1116.0 
237.123764 1192.0 
238.129227 392.0 
239.124191 1228.0 
241.113129 444.0 
243.108475 904.0 
245.127518 968.0 
247.140335 352.0 
248.126953 344.0 
249.163651 1384.0 
250.170975 492.0 
251.129929 2136.0 
253.113815 1108.0 
254.114151 380.0 
255.125061 1232.0 
256.125549 392.0 
257.12674 1236.0 
259.142822 940.0 
260.150299 324.0 
261.127533 596.0 
263.138855 580.0 
265.144196 528.0 
267.176819 11100.0 
268.18161 1972.0 
269.140106 3568.0 
270.142639 368.0 
271.128021 788.0 
273.156403 400.0 
275.14621 360.0 
276.144287 400.0 
277.143372 1392.0 
278.156433 360.0 
279.128754 1652.0 
280.130157 340.0 
281.12677 676.0 
282.139465 380.0 
283.137939 1504.0 
284.134735 340.0 
285.118805 2776.0 
286.11792 520.0 
287.149872 2104.0 
289.154633 1088.0 
293.151611 580.0 
295.153656 2528.0 
297.136353 2504.0 
298.143585 736.0 
299.143738 636.0 
301.149719 916.0 
303.128571 3440.0 
304.134735 500.0 
305.150848 620.0 
307.150116 720.0 
309.164429 420.0 
313.165558 15836.0 
314.16925 2556.0 
315.154205 1408.0 
316.162415 484.0 
317.168152 824.0 
318.175568 484.0 
319.164764 840.0 
321.137329 4556.0 
322.139954 764.0 
323.157288 648.0 
325.164429 664.0 
327.153992 568.0 
329.162079 472.0 
331.172089 1240.0 
333.181641 652.0 
335.17572 1084.0 
337.179077 5920.0 
338.179626 1484.0 
339.156311 1764.0 
341.170258 636.0 
343.168549 832.0 
344.181854 324.0 
345.169281 616.0 
347.166443 660.0 
349.149017 440.0 
351.21283 884.0 
353.196136 1576.0 
354.204224 636.0 
355.187531 796.0 
357.171875 812.0 
359.185425 392.0 
361.173431 1240.0 
363.175873 764.0 
364.189148 640.0 
365.191437 784.0 
367.189484 612.0 
369.180817 860.0 
371.195343 1292.0 
372.212311 340.0 
373.187073 552.0 
375.221283 1028.0 
376.236694 328.0 
377.206604 2168.0 
378.205658 540.0 
379.176575 684.0 
381.192413 1844.0 
383.203491 880.0 
385.185791 384.0 
387.183777 1548.0 
388.199097 548.0 
389.208496 2884.0 
390.213287 652.0 
391.195587 480.0 
393.218689 740.0 
395.222412 1052.0 
397.173035 860.0 
398.181702 376.0 
399.218353 1500.0 
400.214935 424.0 
401.201965 1056.0 
403.222931 1588.0 
404.214691 608.0 
405.191498 2532.0 
406.197266 540.0 
407.213531 2356.0 
408.227203 516.0 
409.210266 636.0 
411.210236 376.0 
413.194336 428.0 
414.193115 352.0 
415.21228 1004.0 
417.223419 684.0 
418.235992 468.0 
419.217834 760.0 
421.226288 1012.0 
422.219696 348.0 
423.199646 3164.0 
424.20047 928.0 
425.209564 1480.0 
426.218292 504.0 
427.199219 328.0 
429.197754 376.0 
431.208923 516.0 
433.216064 656.0 
435.233704 360.0 
437.209167 548.0 
439.231995 520.0 
440.236206 484.0 
441.22229 1392.0 
442.238831 400.0 
443.235565 420.0 
445.230072 560.0 
447.220367 596.0 
448.228973 332.0 
449.210907 480.0 
453.233582 440.0 
455.231873 620.0 
457.234802 480.0 
459.223846 464.0 
461.251038 484.0 
463.250061 316.0 
464.242004 340.0 
465.243286 560.0 
469.242035 340.0 
471.228851 572.0 
473.240265 460.0 
479.263489 344.0 
481.258026 508.0 
482.225433 484.0 
483.249268 1012.0 
487.259735 948.0 
489.237701 436.0 
491.256958 380.0 
493.220917 360.0 
495.244141 560.0 
499.247192 660.0 
505.269348 1104.0 
507.262878 388.0 
509.250977 1016.0 
515.246338 660.0 
516.26001 580.0 
517.247009 1340.0 
518.244202 596.0 
523.273438 772.0 
524.280518 532.0 
525.284546 832.0 
526.249634 460.0 
527.277039 664.0 
531.274231 332.0 
533.261536 1884.0 
534.266052 1004.0 
535.253601 1980.0 
536.259338 1016.0 
541.277405 672.0 
543.275146 564.0 
545.27063 368.0 
551.27179 3920.0 
552.280151 1524.0 
553.278748 448.0 
561.264648 732.0 
563.263489 352.0 
569.28595 3012.0 
570.280151 1616.0 
577.270752 444.0 
585.286743 464.0 
587.293823 3808.0 
588.297302 1512.0 
589.302856 392.0 
595.290161 320.0 
597.286621 680.0 
605.3078 1412.0 
606.314392 916.0 
607.325562 376.0 
609.349243 500.0 
615.29303 496.0 
616.295227 424.0 
617.309692 712.0 
618.334412 576.0 
621.305847 436.0 
623.309814 740.0 
624.324829 392.0 
625.346924 608.0 
627.35791 692.0 
628.371094 400.0 
629.326355 392.0 
633.301208 336.0 
635.331482 1504.0 
636.332825 740.0 
637.339722 344.0 
641.324951 660.0 
645.363403 1036.0 
646.37793 360.0 
653.345398 4712.0 
654.347168 2312.0 
655.351013 668.0 
663.388245 516.0 
664.388184 356.0 
671.353943 11380.0 
672.357178 5428.0 
673.365662 1212.0 
689.367432 9776.0 
690.369385 4712.0 
691.377625 984.0 
707.375366 10580.0 
708.378723 3864.0 
709.384155 1576.0 
725.385925 11720.0 
726.386108 4868.0 
727.395813 1140.0 
728.407166 320.0 
743.396606 26000.0 
744.400635 12756.0 
745.400024 2732.0 
746.409546 604.0 
761.402466 1448.0 
762.422546 468.0 
888.473206 548.0 
889.468628 348.0 
906.483826 1280.0 
907.480469 616.0 
922.004333 492.0 
END IONS

