BEGIN IONS
PEPMASS=448.0
CHARGE=1+
COMPOUNDNAME=Massbank:KO004032 Sisomicin|Antibiotic 6640|Dehydrogentamicin Cla|Rickamicin
LIBRARYQUALITY=3
SMILES=NCC(=C3)O[C@@H]([C@H](N)C3)O[C@H]([C@@H](N)1)[C@H](O)[C@@H](O[C@@H](O2)[C@H](O)[C@@H](NC)[C@](C)(O)C2)[C@H](N)C1
INCHIKEY=URWAJWIAIPFPJE-GYHYWALZSA-N
INCHI=1S/C19H37N5O7/c1-19(27)7-28-18(13(26)16(19)24-2)31-15-11(23)5-10(22)14(12(15)25)30-17-9(21)4-3-8(6-20)29-17/h3,9-18,24-27H,4-7,20-23H2,1-2H3/t9-,10+,11-,12+,13-,14-,15+,16-,17-,18-,19+/m1/s1
MSLEVEL=2
SOURCE_INSTRUMENT=ESI-LC-ESI-QQ
FILENAME=Massbank_ESI_positive_8_1_2014_peaks.mgf
SEQ=*..*
IONMODE=Positive
ORGANISM=MASSBANK
NAME=Massbank:KO004032 Sisomicin|Antibiotic 6640|Dehydrogentamicin Cla|Rickamicin [M+H]+
PI=Putative Massbank Match
DATACOLLECTOR=Massbank
PUBMED=N/A
SUBMITUSER=mwang87
TAGS=
SPECTRUMID=CCMSLIB00000220586
SCANS=9824
142.2 24752.5 
160.3 54455.5 
209.9 44554.5 
225.0 14851.5 
227.6 54455.5 
228.5 14851.5 
232.5 59406.0 
254.3 94059.5 
271.6 287129.0 
289.3 138614.0 
311.9 24752.5 
313.7 123762.5 
322.5 1143565.5 
333.8 29703.0 
344.7 29703.0 
350.6 34653.5 
382.7 29703.0 
389.0 24752.5 
393.6 29703.0 
396.2 14851.5 
404.3 9901.0 
413.8 465347.0 
417.3 29703.0 
430.7 2955448.5 
431.5 84158.5 
448.7 39004989.5 
547.8 19802.0 
END IONS

