BEGIN IONS
PEPMASS=271.061
CHARGE=1+
COMPOUNDNAME=naringenin
LIBRARYQUALITY=3
SMILES=N/A
INCHIKEY=FTVWIRXFELQLPI-ZDUSSCGKSA-N
INCHI=InChI=1S/C15H12O5/c16-9-3-1-8(2-4-9)13-7-12(19)15-11(18)5-10(17)6-14(15)20-13/h1-6,13,16-18H,7H2/t13-/m0/s1
MSLEVEL=2
SOURCE_INSTRUMENT=N/A-ESI-QFT
FILENAME=library_mgf.mgf
SEQ=*..*
IONMODE=negative
ORGANISM=MONA
NAME=naringenin [M-H]-
PI=MoNA
DATACOLLECTOR=MoNA:VF-NPL-QEHF000567
PUBMED=N/A
SUBMITUSER=mwang87
TAGS=
SPECTRUMID=CCMSLIB00004691630
SCANS=567
50.707409 0.034938 
51.906399 0.035865 
52.399178 0.020974 
52.639832 0.049231 
53.035995 0.019599 
53.08876 0.148579 
53.08931 0.158798 
53.11211 0.029575 
53.271503 0.029157 
54.40271 0.04252 
54.488476 0.033532 
54.78294 0.029727 
55.088673 0.040071 
55.317139 0.019726 
56.73996 0.048573 
57.240143 0.046761 
57.367096 0.04596 
57.522938 0.023332 
58.099495 0.047994 
58.573414 0.020165 
59.035812 0.01943 
59.459618 0.040577 
61.890987 0.052621 
62.024849 0.047015 
62.027405 0.263607 
62.088249 0.034563 
62.952446 0.023336 
63.022655 9.404888 
63.535378 0.022583 
64.02626 0.073855 
64.319473 0.05487 
65.00193 14.745754 
66.00531 0.367095 
67.234528 0.020058 
67.363281 0.032436 
67.825623 0.035322 
70.541039 0.039916 
70.884132 0.045963 
71.423637 0.020083 
71.648346 0.019271 
71.742569 0.025004 
74.39801 0.048623 
74.888504 0.0393 
75.300468 0.040037 
78.042198 0.023433 
80.328743 0.025028 
80.797691 0.042799 
81.033379 0.028636 
82.799866 0.04317 
83.012543 15.226221 
83.166748 0.046887 
83.881523 0.037822 
84.015884 0.32988 
86.990395 0.059315 
87.770607 0.04315 
88.748108 0.031303 
89.016632 0.042968 
89.583969 0.052496 
89.991371 0.036267 
92.151062 0.04258 
93.033264 16.830189 
93.571686 0.03633 
93.947502 0.04845 
94.036613 0.757176 
96.165527 0.032928 
100.527451 0.038985 
102.115524 0.051913 
102.352982 0.043896 
102.613762 0.021005 
102.796875 0.039214 
104.02372 0.037887 
104.514496 0.046183 
107.012589 40.53801 
107.159889 0.021002 
108.015968 2.189528 
108.019974 0.079537 
108.853706 0.023212 
108.991867 0.123784 
109.028122 0.025959 
109.421402 0.047484 
113.362274 0.04828 
113.810097 0.02484 
119.024628 0.049822 
119.049004 96.93335 
120.052383 7.345123 
120.552368 0.031246 
121.028297 0.552781 
125.023178 1.140592 
127.967964 0.038309 
128.485977 0.056833 
131.635971 0.046402 
133.028549 0.064256 
137.023392 0.227478 
138.755676 0.023581 
139.545105 0.04164 
141.807144 0.03575 
142.863007 0.034187 
143.049255 0.374073 
143.17598 0.022302 
145.028381 1.659526 
151.002594 100.0 
151.038254 0.066106 
152.005951 6.580775 
153.006653 0.047638 
153.999664 0.045107 
156.903976 0.052189 
157.065643 0.041895 
161.05986 1.59067 
161.59549 0.053015 
165.018387 5.108713 
166.02182 0.11616 
166.562317 0.036045 
166.70076 0.032751 
169.01329 1.666838 
170.119675 0.031821 
173.920685 0.038298 
174.649658 0.021465 
176.677261 0.060872 
177.018387 10.503367 
178.02182 0.693375 
180.891449 0.024788 
182.375229 0.037866 
185.059769 2.122891 
187.039291 2.312564 
193.413834 0.033769 
198.594833 0.051532 
201.515961 0.020352 
203.070221 0.080278 
209.059067 0.062601 
214.771179 0.040682 
216.751968 0.033191 
220.581573 0.204692 
220.590897 0.315906 
224.839478 0.027512 
226.886292 0.041453 
227.070801 1.304752 
229.049942 0.731122 
229.114746 0.020238 
231.614838 0.040272 
241.408096 0.041261 
243.705521 0.041353 
253.050385 0.281444 
260.742554 0.037891 
268.913025 0.04796 
271.061279 7.015904 
272.064575 0.902029 
275.271545 0.039374 
283.455139 0.035411 
287.906403 0.024893 
END IONS

