BEGIN IONS
PEPMASS=397.193
CHARGE=1+
COMPOUNDNAME=Kasugamycin
LIBRARYQUALITY=3
SMILES=N/A
INCHIKEY=PVTHJAPFENJVNC-UQTMRZPGSA-N
INCHI=InChI=1S/C14H25N3O9/c1-3-5(17-12(16)13(23)24)2-4(15)14(25-3)26-11-9(21)7(19)6(18)8(20)10(11)22/h3-11,14,18-22H,2,15H2,1H3,(H2,16,17)(H,23,24)/t3-,4+,5+,6?,7+,8+,9-,10+,11?,14-/m1/s1
MSLEVEL=2
SOURCE_INSTRUMENT=N/A-ESI-QFT
FILENAME=library_mgf.mgf
SEQ=*..*
IONMODE=positive
ORGANISM=MONA
NAME=Kasugamycin [M+NH4]+
PI=MoNA
DATACOLLECTOR=MoNA:VF-NPL-QEHF013464
PUBMED=N/A
SUBMITUSER=mwang87
TAGS=
SPECTRUMID=CCMSLIB00004704527
SCANS=13464
50.132767 0.020728 
51.896786 0.021543 
52.246826 0.022185 
52.585918 0.022003 
53.02327 0.023572 
53.038052 0.076501 
53.039322 6.101947 
53.568039 0.02175 
53.907372 0.019941 
54.042656 0.071553 
54.144848 0.021272 
54.15498 0.020955 
54.270035 0.020117 
54.372353 0.020294 
54.560123 0.02646 
54.940769 0.024327 
55.054935 0.205315 
56.050186 1.182093 
56.522411 0.021131 
56.605316 0.017895 
56.807976 0.023635 
56.9655 0.976159 
57.034203 0.121331 
57.070576 0.075403 
57.291115 0.021438 
58.065811 0.212053 
58.195774 0.020875 
59.061081 2.940338 
59.179916 0.020211 
60.045025 0.026271 
60.950832 0.021124 
61.386936 0.017755 
62.664246 0.021944 
62.861931 0.023452 
62.907837 0.017942 
63.858505 0.019533 
63.875259 0.020141 
64.005196 0.0231 
64.39856 0.024782 
64.468552 0.022164 
67.054878 1.124882 
67.394295 0.020154 
67.938255 0.019574 
68.050148 0.904936 
68.185692 0.018174 
68.671104 0.024473 
68.693634 0.022204 
69.034164 0.021672 
69.070602 0.056335 
69.997978 0.025256 
70.065773 100.0 
71.04985 0.046043 
71.062805 0.123675 
71.069107 4.318574 
71.561913 0.022203 
71.566933 0.020351 
72.045029 0.082606 
72.081619 0.02242 
72.163879 0.020628 
72.551521 0.023867 
72.660744 0.020657 
72.81192 0.021275 
72.960098 0.02312 
73.047424 0.20697 
74.060577 0.139337 
74.667839 0.018492 
75.64817 0.020029 
75.735725 0.019586 
76.422707 0.018435 
77.959694 0.020458 
78.003029 0.018977 
78.765785 0.022657 
79.021889 0.025354 
80.05014 0.062969 
80.792152 0.025758 
81.034019 0.95567 
81.045212 0.714432 
82.053055 0.090782 
82.065659 1.317007 
82.415642 0.02868 
82.992165 0.083558 
83.049683 0.286938 
83.060875 2.394158 
83.127609 0.020982 
84.044952 0.161611 
84.081284 1.271644 
85.028786 0.027173 
85.524666 0.019613 
86.060532 0.028369 
87.364166 0.021194 
89.034996 2.122108 
89.599327 0.01867 
90.451286 0.025791 
90.46434 0.024128 
91.05468 0.06457 
91.05777 0.305619 
92.253059 0.0255 
92.678192 0.021627 
94.065544 2.117641 
95.04953 2.732199 
95.060791 0.550955 
96.068611 0.023478 
96.165367 0.021355 
96.231972 0.025272 
96.473747 0.027197 
97.076469 0.053803 
97.937378 0.02597 
98.060417 0.271703 
98.975761 0.829773 
99.055672 0.102531 
99.470688 0.020454 
99.569672 0.023688 
101.691795 0.030249 
101.69912 0.195945 
103.703575 0.027339 
106.941124 0.018807 
108.226448 0.032245 
108.479927 0.023324 
108.634727 0.028747 
109.028557 0.023361 
109.076576 0.021679 
109.083878 0.024031 
110.060303 0.026531 
111.055939 0.021049 
111.091911 0.341491 
112.071709 0.032037 
112.075912 9.872254 
112.493645 0.020408 
113.071167 0.139455 
113.079315 0.606471 
114.627319 0.019844 
115.407021 0.02264 
116.916611 0.026377 
116.986084 0.326124 
121.076042 0.138922 
127.050056 0.12793 
127.621918 0.024622 
127.75872 0.023448 
127.820847 0.024739 
128.061569 0.022064 
129.758224 0.023213 
130.546524 0.022306 
130.57869 0.022764 
132.372421 0.021822 
137.607529 0.026933 
137.934708 0.021382 
139.086578 0.029345 
141.033264 0.064915 
143.178894 0.028572 
149.023438 0.186281 
149.875854 0.023484 
151.813354 0.023899 
154.458176 0.020507 
156.032806 0.030226 
156.113052 0.162317 
156.183472 0.025698 
156.860886 0.023614 
160.075806 0.022202 
164.051376 0.022606 
168.033051 0.027774 
174.553497 0.027154 
176.089706 0.023335 
178.466309 0.021588 
185.747803 0.027912 
186.0439 0.102996 
190.524963 0.023037 
190.895157 0.024476 
192.391068 0.027799 
195.043427 0.028558 
195.828781 0.026188 
196.246719 0.021017 
196.77095 0.024676 
200.023132 0.020642 
206.170547 0.023307 
207.327362 0.023198 
212.015442 0.028196 
213.054535 0.121084 
213.593719 0.026516 
219.480377 0.026582 
220.929626 0.045976 
220.942612 0.114173 
220.95607 0.180224 
220.967636 0.102503 
220.979996 0.055266 
226.167664 0.029407 
229.661057 0.028851 
240.908401 0.085407 
258.055756 0.026205 
259.013824 0.019542 
260.33725 0.02496 
262.625061 0.024162 
264.285034 0.024085 
268.954559 0.027685 
279.873627 0.026753 
282.146454 0.023399 
287.362457 0.025699 
305.636658 0.019758 
310.125183 0.030755 
312.837891 0.040691 
313.754242 0.022667 
317.93689 0.02756 
320.059967 0.019875 
322.055573 0.023035 
335.763092 0.025746 
345.437683 0.022976 
347.414307 0.021269 
354.541565 0.023958 
371.405182 0.023234 
385.596802 0.025556 
394.070496 0.021401 
396.47644 0.024594 
397.964478 0.021418 
399.646332 0.023483 
402.432739 0.029652 
403.374023 0.025359 
431.826111 0.031069 
432.940765 0.024597 
447.346741 0.095727 
END IONS

