BEGIN IONS
PEPMASS=454.147
CHARGE=1+
COMPOUNDNAME=(5S,8S)-8-benzoyl-2-[(Z,1S,2S)-1,2-dihydroxyhex-3-enyl]-9-hydroxy-8-methoxy-3-methyl-1-oxa-7-azaspiro[4.4]non-2-ene-4,6-dione
LIBRARYQUALITY=3
SMILES=N/A
INCHIKEY=SLYDIPAXCVVRNY-BBJHAQHQSA-N
INCHI=InChI=1S/C22H25NO8/c1-4-5-11-14(24)15(25)16-12(2)17(26)21(31-16)19(28)22(30-3,23-20(21)29)18(27)13-9-7-6-8-10-13/h5-11,14-15,19,24-25,28H,4H2,1-3H3,(H,23,29)/b11-5-/t14-,15-,19?,21+,22+/m0/s1
MSLEVEL=2
SOURCE_INSTRUMENT=N/A-ESI-QFT
FILENAME=library_mgf.mgf
SEQ=*..*
IONMODE=positive
ORGANISM=MONA
NAME=(5S,8S)-8-benzoyl-2-[(Z,1S,2S)-1,2-dihydroxyhex-3-enyl]-9-hydroxy-8-methoxy-3-methyl-1-oxa-7-azaspiro[4.4]non-2-ene-4,6-dione [M+Na]+
PI=MoNA
DATACOLLECTOR=MoNA:VF-NPL-QEHF020444
PUBMED=N/A
SUBMITUSER=mwang87
TAGS=
SPECTRUMID=CCMSLIB00004711507
SCANS=20444
50.029339 0.417096 
50.11705 0.16535 
50.78772 0.389218 
51.619801 0.173227 
51.815506 0.21099 
51.846622 0.086408 
51.889912 0.393768 
52.841682 0.51096 
53.995499 0.053986 
54.434273 0.347124 
54.772785 0.17888 
54.951916 0.123875 
55.190296 0.355376 
55.353088 0.079259 
56.074013 0.11562 
56.318752 0.118107 
56.965019 0.24135 
57.070076 0.090002 
57.119434 0.086744 
57.318096 0.2812 
58.153507 0.295867 
58.602283 0.169604 
59.260326 0.05883 
59.560047 0.103269 
59.873291 0.093316 
60.488739 0.145164 
60.866528 0.141624 
60.990288 0.153414 
61.547443 0.089351 
61.888046 0.427469 
62.16468 0.154933 
62.644768 0.097592 
63.336491 0.405268 
63.546242 0.121212 
63.817825 0.357898 
64.260277 0.324068 
64.817764 0.387242 
64.97551 0.231042 
65.203278 0.404129 
65.653587 0.124614 
66.744202 0.174054 
67.098251 0.378163 
69.141396 0.160733 
69.733475 0.175086 
70.006905 0.118706 
70.017021 0.308012 
70.681625 0.479021 
72.093887 0.390974 
73.294106 0.123255 
73.967735 0.452314 
74.504936 0.136959 
74.713951 0.326028 
76.98172 0.112748 
77.470398 0.434932 
77.619904 0.455401 
77.794991 0.306433 
79.208519 0.452426 
79.901787 0.331728 
80.023148 0.084939 
80.945747 0.466536 
81.179344 0.362055 
81.363075 0.415009 
81.556259 0.128424 
81.5989 0.147115 
81.728401 0.157294 
82.026253 16.938484 
82.160652 0.474027 
83.008461 0.37448 
83.366905 0.413382 
83.97818 0.252471 
84.328407 0.427444 
85.669418 0.458464 
86.009628 0.092676 
88.184311 0.29344 
88.808586 0.349726 
89.132591 0.109687 
89.204552 0.316754 
89.409843 0.332995 
91.2901 0.404177 
91.455681 0.418125 
91.841454 0.149938 
92.384918 0.242333 
94.027863 0.521708 
94.087006 0.407882 
94.339676 0.399048 
94.399773 0.342512 
95.37738 0.245203 
95.472832 0.1444 
95.746399 0.452772 
95.913338 0.391372 
96.109726 0.42557 
96.544891 0.291262 
96.95649 0.47087 
97.18322 0.123635 
97.205849 0.135614 
97.776451 0.143749 
98.572418 0.311045 
98.858932 0.443777 
98.975174 0.191276 
99.687569 0.271165 
99.887383 0.377744 
104.343933 0.313752 
104.912163 0.15321 
105.033508 11.052133 
106.036865 0.207885 
107.649261 0.458534 
107.704659 0.487789 
108.243309 0.178829 
110.122643 0.369504 
110.443611 0.117416 
112.460014 0.184564 
113.963158 0.467863 
116.738533 0.059816 
116.985329 0.127478 
118.525093 0.109994 
122.281769 0.368727 
126.648705 0.071213 
127.329445 0.488931 
129.831131 0.166179 
130.258148 0.191637 
131.001434 0.101185 
131.983688 0.132034 
133.729416 0.267891 
134.734558 0.14415 
134.873108 0.062093 
136.573837 0.107629 
139.03894 0.083518 
139.280838 0.385825 
141.906097 0.243638 
143.023514 0.356517 
143.941711 0.479834 
145.877716 0.142773 
146.05658 0.309162 
146.956131 0.411154 
149.020859 1.128854 
154.061157 0.383639 
155.033447 0.145497 
155.747238 0.427847 
155.887329 0.376491 
156.041916 9.493461 
156.897552 0.149537 
157.02594 55.210526 
157.049622 0.372741 
158.029037 1.129439 
161.357819 0.348438 
161.3703 0.343468 
161.533432 0.109857 
163.880692 0.112245 
164.009094 0.288692 
165.314011 0.134102 
172.441071 0.432873 
173.343033 0.492638 
175.000153 0.430156 
176.007858 1.885202 
177.015915 1.199762 
177.228806 0.37103 
177.519211 0.337949 
178.35907 0.393835 
179.031067 0.103882 
179.915085 0.44304 
180.360184 0.250269 
180.581863 0.476927 
183.990967 0.070209 
184.03685 27.508821 
185.039841 0.634156 
186.052429 1.270365 
187.293304 0.46579 
188.774704 0.431156 
189.888062 0.104655 
191.365082 0.36445 
192.026581 10.145198 
194.080887 0.071054 
202.738327 0.102503 
203.874649 0.361153 
208.115784 0.406486 
212.75209 0.435236 
213.006607 0.073273 
213.182663 0.064242 
213.196854 21.207039 
215.808365 0.245716 
216.063095 100.0 
217.066498 6.199722 
220.761841 0.240937 
223.808197 0.228387 
224.031479 0.451852 
229.342911 0.195286 
231.016968 0.136627 
231.656586 0.177372 
232.021469 5.597659 
232.043304 0.060369 
233.919968 0.425167 
234.00882 0.068172 
234.24498 0.250716 
234.562607 0.520244 
235.093597 1.435974 
244.026794 0.165312 
245.015961 0.393669 
254.034332 0.295286 
261.07309 9.340528 
262.348694 0.269656 
263.088898 1.313656 
263.151245 0.144969 
269.165314 0.124838 
269.478363 0.471079 
279.083832 32.60268 
286.122681 0.382547 
290.461975 0.099906 
292.049622 0.370028 
294.048889 0.598081 
295.194763 0.085335 
297.646942 0.176248 
297.878235 0.168644 
301.995575 0.513591 
305.490417 0.061227 
308.053223 0.764667 
310.506622 0.098231 
313.204926 2.53649 
314.207672 1.656315 
318.580261 0.181538 
319.53125 0.107694 
322.287201 0.119117 
331.21582 0.181735 
332.217743 0.105552 
333.770752 0.329039 
335.385223 0.113544 
336.840454 0.107443 
340.651825 0.443478 
341.236481 0.359074 
343.642059 0.273267 
345.294464 0.326423 
346.881348 0.08171 
353.956757 0.504084 
358.566864 0.340488 
365.97113 0.476093 
370.089142 0.33468 
370.199677 0.120594 
370.758148 0.357409 
371.225067 0.346344 
374.293335 0.190898 
386.679077 0.582657 
390.556976 0.514581 
403.808411 0.35861 
404.234924 0.070574 
414.054138 0.444878 
416.78183 0.178442 
417.868073 0.181598 
419.054993 0.137968 
419.343628 0.515973 
439.651581 0.433861 
452.044617 0.39346 
453.18457 0.380665 
463.089569 0.140027 
471.654968 0.451308 
484.058563 0.138225 
END IONS

