BEGIN IONS
PEPMASS=407.219
CHARGE=1+
COMPOUNDNAME=Roquefortine C
LIBRARYQUALITY=3
SMILES=N/A
INCHIKEY=SPWSUFUPTSJWNG-LIMLNZRCSA-N
INCHI=InChI=1S/C22H23N5O2/c1-4-21(2,3)22-10-17-18(28)25-16(9-13-11-23-12-24-13)19(29)27(17)20(22)26-15-8-6-5-7-14(15)22/h4-9,11-12,17,20,26H,1,10H2,2-3H3,(H,23,24)(H,25,28)/b16-9-/t17-,20-,22+/m0/s1
MSLEVEL=2
SOURCE_INSTRUMENT=N/A-ESI-QFT
FILENAME=library_mgf.mgf
SEQ=*..*
IONMODE=positive
ORGANISM=MONA
NAME=Roquefortine C [M+NH4]+
PI=MoNA
DATACOLLECTOR=MoNA:VF-NPL-QEHF016413
PUBMED=N/A
SUBMITUSER=mwang87
TAGS=
SPECTRUMID=CCMSLIB00004707476
SCANS=16413
50.816013 0.065514 
53.002544 0.871918 
53.163521 0.059288 
54.010406 0.054884 
54.034229 0.57967 
55.018223 0.24091 
55.054546 0.117253 
55.308849 0.04021 
55.507736 0.041625 
55.828178 0.035993 
56.53904 0.050338 
56.973171 0.029209 
57.126606 0.061006 
57.264942 0.057599 
57.787601 0.040424 
57.822216 0.066014 
58.209 0.040858 
59.390285 0.053069 
59.960278 0.066119 
60.683929 0.062519 
61.175781 0.059694 
61.781727 0.073555 
61.853683 0.060643 
62.018688 0.091408 
62.08099 0.060207 
63.62878 0.066141 
64.923714 0.058453 
65.208374 0.049957 
65.9244 0.053422 
66.759727 0.030852 
66.974052 0.051732 
67.05439 1.015148 
67.08773 0.06339 
68.013176 0.175133 
68.037132 0.158623 
68.145912 0.037507 
69.044861 18.833157 
69.046837 0.073008 
69.070023 18.798574 
69.118103 0.040558 
69.983315 0.054594 
70.073372 0.646612 
70.447952 0.071552 
71.064857 0.061482 
71.279518 0.041258 
72.029854 0.071187 
72.063828 0.060251 
72.080902 0.794677 
73.410194 0.069671 
73.601044 0.042403 
74.81044 0.070844 
74.968437 0.050095 
75.131065 0.029158 
77.258438 0.061135 
78.091797 0.071341 
78.098076 0.036148 
78.235977 0.0502 
79.054382 0.26556 
80.463112 0.062706 
80.900398 0.073086 
81.042175 0.376613 
81.044823 36.996925 
81.047478 0.321527 
81.066338 0.047602 
81.069984 1.048912 
81.281158 0.0551 
82.048233 1.498661 
82.052757 6.899572 
82.914543 0.046799 
83.060425 1.674055 
85.039742 18.056183 
86.043228 0.05696 
86.594749 0.063856 
86.816734 0.079606 
87.083511 0.059358 
87.463531 0.064197 
90.182808 0.048491 
90.368416 0.051058 
91.054298 0.214329 
91.187134 0.055742 
91.736588 0.075563 
92.308525 0.062919 
92.723442 0.031752 
93.044861 8.495709 
93.693787 0.068457 
93.975578 0.06662 
94.028648 0.032705 
94.040085 0.426376 
94.047852 0.080133 
94.065117 0.069684 
95.024063 6.633561 
95.060463 5.547683 
95.739143 0.066056 
96.031914 0.192029 
96.055656 2.770229 
96.063728 0.486924 
97.039757 7.284664 
98.07933 0.671927 
98.551857 0.072393 
98.841316 0.055928 
99.055313 0.106522 
99.773552 0.068339 
101.912674 0.048395 
103.054253 1.112152 
103.590858 0.050004 
105.04483 0.140105 
105.069534 0.067356 
105.645226 0.058427 
105.651817 0.061904 
106.040085 18.00503 
107.043686 0.50587 
107.047897 7.36615 
107.060318 0.082444 
107.536789 0.033752 
107.890602 0.030347 
107.901489 0.060609 
108.055717 55.189968 
109.03968 5.800035 
109.052429 0.089262 
109.059189 2.803187 
109.063507 24.564407 
109.224449 0.069391 
110.067558 0.349073 
110.071365 7.180802 
110.399193 0.047323 
111.055504 0.094577 
113.034683 15.714683 
114.037926 0.036647 
115.054314 1.33841 
117.057365 0.389018 
118.065094 1.024845 
118.233238 0.067966 
118.403641 0.0386 
119.085991 0.048155 
120.05574 9.587264 
120.080826 0.22365 
121.039764 0.408115 
121.063492 0.823144 
121.949921 0.054576 
122.07135 5.209263 
122.89119 0.080505 
123.074417 0.517857 
123.079071 1.567115 
124.045815 0.115822 
124.05072 10.051748 
124.082466 0.537584 
125.034737 3.600053 
126.09803 0.227895 
129.069885 3.011239 
130.065231 100.0 
130.507156 0.03176 
131.068405 10.42698 
132.055679 0.580461 
132.071838 0.076057 
132.080826 3.668922 
132.422821 0.054641 
134.035004 0.166596 
134.071396 0.92627 
135.066574 1.702432 
136.050659 12.387081 
136.85524 0.065051 
137.058563 0.615072 
137.082214 4.107539 
137.649353 0.05465 
137.867889 0.052345 
138.06633 0.215466 
141.131271 0.059665 
142.065277 9.277064 
142.077698 0.075194 
143.073257 7.699222 
143.0858 0.041161 
144.081161 6.243117 
145.06517 0.180169 
145.07605 1.21667 
145.083939 0.388227 
146.035202 0.149518 
146.060074 22.55686 
147.063126 0.771181 
147.098801 0.057218 
148.050568 4.347284 
148.075272 0.212661 
149.034729 2.494282 
149.054398 0.068402 
149.082336 0.326205 
149.887985 0.035162 
150.066299 0.47444 
150.435394 0.060928 
151.037628 0.239529 
151.060638 0.061473 
152.045517 2.336686 
153.029449 0.612925 
154.065323 6.75123 
155.060669 0.547661 
155.073425 5.30487 
156.0811 6.175502 
157.076111 2.3502 
157.088959 0.179873 
158.060059 5.390292 
158.08403 0.340456 
159.068161 0.294105 
159.091736 1.566544 
160.050095 0.053539 
160.075699 2.757219 
162.029816 10.010076 
162.147491 0.038311 
162.976547 0.040951 
163.061447 20.779364 
164.04541 3.915544 
164.069595 0.767939 
165.070114 0.142684 
165.07724 11.239875 
166.06131 0.091343 
166.081146 0.049681 
167.060883 0.232194 
167.072983 0.699883 
167.69577 0.068867 
168.080948 12.028178 
169.076233 4.351186 
169.089233 5.428595 
170.060089 6.991802 
170.096588 0.416019 
171.055374 0.49829 
171.068268 0.655999 
171.09166 1.475146 
172.0634 0.101568 
172.075836 1.524913 
172.095139 0.081187 
173.070862 0.081278 
175.06134 0.407408 
175.08696 0.065337 
176.045395 2.389598 
177.077072 5.386335 
177.844894 0.061944 
178.08165 0.132075 
178.9785 0.066443 
179.056473 2.355232 
180.040848 0.256814 
180.063889 0.157553 
180.080933 0.366341 
180.095779 0.171948 
181.076126 1.215618 
181.088593 2.201539 
181.518295 0.068251 
182.060181 0.916831 
182.096634 10.10009 
183.055145 0.043532 
183.104828 9.431784 
184.075836 4.200505 
184.108292 0.324139 
185.071121 4.200417 
185.083801 1.129184 
185.11467 0.079147 
191.056534 3.707257 
192.040543 5.648003 
192.064285 15.846224 
193.04483 0.147767 
193.072144 25.683249 
193.541199 0.064417 
194.076477 1.075975 
195.091751 0.23835 
196.112137 3.057646 
197.071167 0.787197 
197.08345 0.168687 
197.75473 0.085908 
198.091476 2.134712 
198.12793 19.313782 
199.099197 3.603779 
199.13121 3.21298 
199.845108 0.072824 
201.065414 0.119861 
204.958878 0.058894 
205.072449 2.667394 
206.080292 0.314321 
207.051468 0.961246 
207.087372 0.394742 
208.059113 0.13516 
208.089355 0.330684 
209.067596 0.446558 
209.090866 0.07209 
210.104111 0.400942 
212.107407 0.142284 
214.122589 5.330156 
214.68576 0.071071 
215.126526 0.135835 
216.948746 0.08021 
219.594177 0.502106 
220.08728 1.649415 
221.071365 0.061894 
221.091843 0.11943 
222.103409 0.143571 
222.900269 0.036416 
230.523514 0.074835 
232.086929 0.209753 
233.997314 0.050701 
234.091156 0.075343 
234.102295 0.115071 
235.097855 0.265285 
236.082092 0.292623 
236.103607 0.067906 
237.579391 0.064378 
240.909286 0.189351 
247.097656 0.204371 
248.082214 0.246323 
249.112686 0.063456 
258.480835 0.042489 
259.098053 0.273029 
260.914307 0.058524 
260.978088 0.060329 
261.076599 0.42054 
261.892731 0.063163 
261.964569 0.066252 
262.081329 0.53668 
263.083191 0.173498 
264.086823 0.171248 
267.653839 0.075131 
271.551636 0.077933 
274.622864 0.06984 
275.092987 0.069124 
277.741669 0.063036 
277.808502 0.056287 
278.043182 0.040493 
278.179443 0.041938 
280.147003 0.05971 
282.865082 0.056716 
284.807678 0.036396 
287.83197 0.097086 
296.136475 0.047614 
298.272858 0.052169 
300.722229 0.038794 
302.818665 0.144161 
306.097717 0.193182 
308.444397 0.069074 
308.470123 0.063772 
310.843964 0.049347 
312.839172 1.34115 
314.457581 0.071122 
321.517883 0.072759 
322.937256 0.070468 
326.817871 0.048362 
340.777557 0.07186 
342.834961 0.057304 
344.829163 1.650495 
349.337067 0.074127 
358.217438 0.071109 
365.76004 0.057553 
373.72229 0.060315 
382.263367 0.058017 
385.425446 0.044487 
388.934937 0.076083 
419.818268 0.074334 
421.602448 0.032836 
END IONS

