BEGIN IONS
PEPMASS=338.16
CHARGE=1+
COMPOUNDNAME=MYCOPHENOLIC ACID
LIBRARYQUALITY=3
SMILES=N/A
INCHIKEY=HPNSFSBZBAHARI-RUDMXATFSA-N
INCHI=InChI=1S/C17H20O6/c1-9(5-7-13(18)19)4-6-11-15(20)14-12(8-23-17(14)21)10(2)16(11)22-3/h4,20H,5-8H2,1-3H3,(H,18,19)/b9-4+
MSLEVEL=2
SOURCE_INSTRUMENT=N/A-ESI-QFT
FILENAME=library_mgf.mgf
SEQ=*..*
IONMODE=positive
ORGANISM=MONA
NAME=MYCOPHENOLIC ACID [M+NH4]+
PI=MoNA
DATACOLLECTOR=MoNA:VF-NPL-QEHF011303
PUBMED=N/A
SUBMITUSER=mwang87
TAGS=
SPECTRUMID=CCMSLIB00004702366
SCANS=11303
50.007336 0.036734 
50.013187 0.027354 
50.051468 0.044833 
50.32653 0.034628 
50.543827 0.054016 
50.928631 0.024243 
51.079323 0.037717 
51.207821 0.023429 
51.487179 0.031905 
51.595043 0.039846 
51.736217 0.032411 
51.968323 0.064752 
52.108017 0.038263 
52.682495 0.050557 
53.034492 0.045132 
54.225224 0.050113 
54.549694 0.027152 
54.584141 0.030628 
54.749668 0.035791 
54.853794 0.036669 
55.018696 0.050666 
55.029953 0.049154 
55.164566 0.054107 
55.80978 0.038127 
55.860172 0.046735 
56.017803 0.04128 
56.124928 0.035441 
56.454357 0.047159 
56.525368 0.05738 
56.825142 0.039763 
57.282845 0.032578 
57.460304 0.038669 
57.482613 0.038735 
57.600716 0.03791 
58.036659 0.039794 
58.375267 0.047181 
58.428768 0.037344 
58.473572 0.036487 
58.502792 0.039388 
58.84745 0.028079 
58.925613 0.056691 
60.778221 0.027739 
61.286518 0.045244 
61.31242 0.027468 
61.586048 0.03607 
61.779537 0.027133 
61.849194 0.036189 
62.976192 0.043223 
63.032379 0.039724 
63.2188 0.039734 
63.287949 0.031829 
63.689728 0.045779 
63.971527 0.0366 
64.529999 0.03744 
64.965553 0.05684 
65.190773 0.038036 
65.558578 0.026608 
66.501175 0.043453 
66.930717 0.03227 
68.514389 0.032289 
69.273582 0.036797 
69.402573 0.02823 
69.655037 0.033774 
70.080788 0.040286 
70.787933 0.038503 
71.542809 0.043834 
71.663239 0.023978 
71.972961 0.044617 
72.103989 0.025172 
72.161148 0.040659 
72.225418 0.023928 
72.22773 0.03735 
72.355537 0.041409 
72.749176 0.05919 
73.844269 0.039847 
74.085716 0.023759 
74.129745 0.045201 
74.391441 0.038914 
74.530518 0.046619 
74.569214 0.041325 
76.320076 0.038999 
76.324432 0.031736 
77.95945 0.0492 
78.218391 0.036161 
79.286308 0.036186 
79.384247 0.032833 
81.070412 1.24757 
81.166916 0.047845 
81.406982 0.03626 
81.986237 0.046597 
82.556786 0.037294 
82.978119 0.040597 
84.85054 0.039133 
84.970055 0.032112 
86.561127 0.035727 
90.378288 0.03842 
91.058372 0.029347 
91.248093 0.036014 
91.404449 0.043388 
93.585297 0.039891 
93.951248 0.038215 
94.287766 0.043528 
94.685745 0.047608 
94.895897 0.040329 
95.628525 0.056031 
95.985886 0.052715 
96.800201 0.03936 
100.688972 0.046972 
100.951736 0.047415 
100.96814 0.034571 
102.728409 0.035911 
102.877373 0.027811 
104.864037 0.045247 
106.404396 0.046506 
106.61985 0.044146 
109.065102 0.077134 
109.164963 0.039695 
109.344055 0.037562 
109.712479 0.037567 
113.747704 0.0247 
114.46167 0.035412 
114.617035 0.038731 
114.726524 0.03481 
115.488914 0.049079 
116.578125 0.040489 
116.99498 0.037493 
117.188782 0.048189 
120.02935 0.036415 
120.909653 0.043041 
126.655952 0.031789 
126.798622 0.036045 
127.235985 0.038262 
129.003571 0.040461 
129.332474 0.050452 
132.053741 0.040785 
134.023148 0.039175 
135.080444 0.075758 
135.64415 0.044562 
136.192383 0.042674 
137.30159 0.037315 
138.615036 0.025195 
144.520142 0.047491 
145.256943 0.045829 
146.62468 0.037226 
152.559662 0.047911 
153.319809 0.064895 
153.363373 0.038405 
157.203659 0.034229 
158.105179 0.037325 
159.04393 6.219975 
160.047409 2.637071 
160.693008 0.040705 
163.492828 0.04231 
165.654007 0.04991 
169.4991 0.045433 
171.018677 0.037348 
171.072678 0.026664 
173.150726 0.041867 
175.07486 0.042242 
177.047043 0.057262 
177.054581 10.498484 
178.057907 4.569117 
179.061172 0.101543 
185.805359 0.046574 
191.161407 0.031258 
191.806656 0.043317 
192.827393 0.027313 
193.923767 0.029868 
195.06517 4.550227 
196.068481 1.177469 
196.932785 0.034537 
197.070068 0.040709 
200.493011 0.051818 
204.382141 0.030434 
207.065109 100.0 
208.068466 35.678745 
209.070374 7.898313 
209.349716 0.034907 
209.40686 0.031178 
212.859055 0.048062 
214.744766 0.6122 
214.757629 2.112353 
214.768982 0.512862 
215.106613 0.407751 
216.109772 0.043706 
218.223831 0.053117 
221.080566 0.046842 
221.661652 0.038876 
222.748871 0.030498 
223.059937 0.126574 
231.025681 0.052566 
234.741501 0.050327 
237.220444 0.046658 
243.088623 0.050081 
243.900497 0.045576 
249.767151 0.034143 
252.98642 0.0409 
255.670776 0.038216 
260.906006 0.041035 
261.111847 0.130218 
272.272827 0.039861 
275.127594 0.678621 
276.130707 0.344365 
285.111755 1.362672 
286.115417 0.557713 
298.012146 0.041756 
300.992615 0.039708 
301.638702 0.038972 
302.885895 0.042619 
307.250977 0.054196 
308.78653 0.040985 
311.753845 0.037662 
312.563934 0.047259 
315.675995 0.031205 
328.73996 0.034864 
336.577118 0.047667 
340.937347 0.03183 
END IONS

