BEGIN IONS
PEPMASS=281.042
CHARGE=1+
COMPOUNDNAME=norlichexanthone
LIBRARYQUALITY=3
SMILES=N/A
INCHIKEY=AQZHBCDRWFMXIN-UHFFFAOYSA-N
INCHI=InChI=1S/C14H10O5/c1-6-2-7(15)4-10-12(6)14(18)13-9(17)3-8(16)5-11(13)19-10/h2-5,15-17H,1H3
MSLEVEL=2
SOURCE_INSTRUMENT=N/A-ESI-QFT
FILENAME=library_mgf.mgf
SEQ=*..*
IONMODE=positive
ORGANISM=MONA
NAME=norlichexanthone [M+Na]+
PI=MoNA
DATACOLLECTOR=MoNA:VF-NPL-QEHF017950
PUBMED=N/A
SUBMITUSER=mwang87
TAGS=
SPECTRUMID=CCMSLIB00004709013
SCANS=17950
50.824192 0.020044 
50.946339 0.021254 
51.339931 0.023963 
52.900185 0.019294 
53.219063 0.027995 
53.302757 0.020432 
53.479095 0.023099 
53.651558 0.023789 
53.865009 0.022094 
53.991783 0.022348 
54.405495 0.024292 
55.054577 0.669119 
55.592915 0.0234 
56.049782 0.137958 
56.943138 0.023657 
56.96508 0.656275 
56.988586 0.020923 
57.033749 0.191492 
57.070183 2.436033 
57.071552 0.038966 
57.322437 0.021554 
57.57885 0.019218 
57.779053 0.023729 
58.065407 17.975954 
58.570633 0.022168 
59.049419 0.444448 
59.068787 0.362103 
59.150623 0.019066 
59.389999 0.022384 
60.080948 0.080473 
60.498486 0.024223 
61.01088 68.470047 
62.010281 0.88045 
62.014198 2.493765 
62.018665 1.614332 
62.060356 0.066562 
62.90659 0.020467 
62.981949 0.346564 
63.006638 4.988679 
63.997997 0.083135 
64.498245 0.019583 
65.15184 0.019855 
65.231216 0.023283 
65.689857 0.023424 
65.745903 0.019941 
66.672073 0.019864 
67.054382 1.519039 
67.785065 0.022742 
68.690254 0.021884 
69.033638 0.349019 
69.069984 2.172129 
70.065216 1.10223 
70.566444 0.019397 
70.772209 0.018768 
70.980408 0.1124 
71.04921 0.605506 
71.085617 0.842283 
71.417831 0.021926 
71.552368 0.025105 
72.044479 0.21468 
72.080864 2.651653 
73.046867 0.809578 
73.064865 1.061737 
74.023727 0.024051 
74.060081 0.257809 
74.320412 0.019378 
74.734924 0.023207 
74.825874 0.020687 
74.939674 0.024127 
75.044128 0.866691 
76.17244 0.018709 
76.480301 0.022201 
76.885162 0.022364 
77.497643 0.025163 
77.964973 0.018762 
77.968803 0.379259 
78.013474 0.028662 
78.348099 0.022629 
78.729347 0.022529 
78.75351 0.023656 
79.021271 7.502576 
79.054306 0.25181 
79.673203 0.01834 
80.251389 0.01977 
80.949074 0.022678 
81.016884 0.07219 
81.018791 0.03288 
81.069939 2.260901 
81.21489 0.022799 
82.065269 0.023749 
83.049179 0.417546 
83.085571 0.844425 
83.470123 0.020709 
84.04451 0.10768 
84.080826 0.4897 
85.028503 0.076765 
85.064873 0.498482 
85.101181 0.246779 
86.060135 0.21897 
86.096481 6.474647 
86.423347 0.023381 
86.849358 0.024125 
86.94561 0.023806 
87.044151 2.816565 
87.099838 0.256623 
88.049889 0.025574 
88.075775 1.949542 
89.059769 44.751591 
90.941559 0.023007 
90.947617 0.088233 
91.05442 0.215763 
91.057365 1.749203 
91.974457 0.024714 
92.621841 0.025594 
93.069954 3.827045 
94.073273 0.02488 
94.217415 0.022297 
94.472351 0.022291 
95.049171 0.073021 
95.06076 0.024594 
95.085548 18.185284 
96.080566 0.027105 
96.088882 1.221852 
96.877922 0.020496 
97.028381 0.027549 
97.064819 0.617527 
97.101257 0.42009 
98.975388 2.492196 
99.044037 0.102039 
99.080376 0.181586 
99.43251 0.01874 
100.050667 0.033207 
100.07576 0.098767 
100.815468 0.017903 
101.003258 0.867484 
101.059853 0.234049 
101.96714 0.025138 
102.054749 0.027021 
103.039055 0.812159 
103.075401 0.025033 
103.121552 0.027731 
104.272026 0.021106 
104.988808 0.065868 
104.992386 2.820557 
105.033585 0.364148 
105.07 0.510489 
105.916969 0.185913 
107.070282 0.715308 
107.085602 6.259463 
108.088867 0.033684 
108.248032 0.024075 
108.375717 0.023963 
109.064796 0.240123 
109.101212 1.358257 
109.104431 0.027113 
109.940979 0.027543 
110.060036 1.917666 
110.104553 0.021647 
111.044273 0.041899 
111.080437 0.131929 
111.116615 0.034045 
111.52726 0.030759 
111.746719 0.023427 
113.059929 0.078718 
114.091431 0.113464 
114.127808 0.698815 
115.0065 0.021958 
115.036629 0.038631 
116.013466 0.021939 
116.070717 0.021774 
116.985954 2.056163 
117.917206 0.029646 
119.085571 1.279722 
120.080841 2.716737 
120.532631 0.280473 
120.983589 0.023212 
121.064888 0.517039 
121.084183 0.132702 
121.101181 1.821657 
122.059967 0.533243 
123.058479 0.019897 
123.080437 0.963166 
123.116829 0.357212 
124.939194 0.168004 
125.059792 0.437838 
125.096268 0.123069 
125.107414 4.102735 
126.110703 0.068417 
127.086624 2.39247 
128.933701 0.049528 
130.483627 0.0172 
130.931519 0.023005 
131.070312 0.021102 
131.085541 0.133056 
132.101883 0.521984 
133.017166 0.96782 
133.085938 9.718685 
133.101166 0.518346 
133.948242 0.023073 
134.09671 0.02858 
134.978622 0.658661 
134.996399 1.189614 
135.080399 3.287533 
135.116806 0.770467 
135.471359 0.027195 
135.927658 0.321326 
136.075729 1.003242 
136.084381 0.024018 
136.112274 0.022947 
137.096115 0.049455 
139.038971 0.4191 
139.075333 0.176548 
139.111633 0.023214 
139.493118 0.022206 
140.912857 0.083251 
140.959351 0.025656 
140.966034 0.025221 
141.054688 0.053204 
141.942596 0.022224 
142.949951 0.093808 
143.939697 0.429849 
145.101303 0.081033 
145.938431 0.032952 
145.966766 0.049792 
146.530106 0.024146 
146.965179 0.024569 
146.974106 0.051204 
147.116776 1.164765 
149.023376 0.630604 
149.09613 0.337796 
149.132507 8.122324 
150.000092 0.023184 
150.027069 0.026342 
150.09166 0.026385 
150.135941 0.195054 
150.475494 0.024145 
150.951447 0.028434 
150.97998 0.021941 
151.027817 0.447721 
151.055374 0.026316 
151.096481 0.082655 
151.111908 0.026223 
151.958893 0.560125 
152.070618 0.049676 
152.106934 0.023737 
152.951508 0.037103 
152.989227 0.62601 
153.005264 0.295375 
153.054626 0.660078 
153.091034 1.935829 
153.938751 0.536081 
154.426636 0.027937 
154.931427 0.299801 
155.106689 0.284562 
155.425751 0.022198 
155.93631 1.167349 
156.138351 3.365844 
156.399841 0.020576 
156.965973 1.983774 
157.141693 0.074975 
157.936417 0.058906 
157.952225 0.025756 
157.969238 0.118058 
158.94458 0.178426 
158.954239 0.600518 
158.962799 8.623763 
158.96994 0.033381 
158.976425 1.007534 
159.006027 0.025622 
159.032761 0.021319 
159.96402 1.042055 
159.976685 0.196742 
160.942337 0.028881 
160.951645 6.836737 
160.961548 3.038714 
160.973709 0.242842 
161.132538 0.144362 
161.448486 0.022183 
162.043762 0.211358 
162.951126 1.232195 
163.027664 0.206601 
163.073608 0.051339 
163.111801 0.082211 
163.148087 4.023185 
163.958832 2.634677 
163.97702 0.223933 
164.15123 0.049481 
164.920395 0.152402 
165.054672 0.035534 
165.088455 0.019871 
165.938187 3.767148 
165.954971 0.233541 
166.053253 0.684579 
166.086273 0.26364 
167.09021 0.026964 
167.106674 5.497126 
167.11795 4.142127 
167.934143 0.47216 
168.065506 0.027456 
168.110046 0.049135 
168.121506 0.164193 
169.967972 0.028701 
170.914169 0.207722 
170.945007 0.862572 
171.064026 0.086661 
171.949097 0.25614 
172.942139 3.521601 
173.132614 0.457224 
173.946381 0.590532 
174.940842 1.175452 
174.975357 0.229485 
175.147629 0.028094 
175.946732 0.036332 
177.043549 0.957242 
177.05426 0.02347 
177.112244 0.618046 
177.127426 0.299279 
177.164276 0.023854 
177.959671 0.175939 
180.101227 0.029834 
180.961685 2.399843 
181.00029 0.028977 
181.969421 0.864486 
182.080811 0.062488 
182.957581 0.178966 
183.040909 0.024382 
183.948792 2.175417 
184.064697 0.066053 
185.182571 0.024168 
185.665451 0.023695 
185.944992 0.133828 
185.961533 3.981879 
186.961975 0.166148 
187.929337 0.511191 
187.977127 1.131558 
188.92482 0.932138 
188.955002 0.665284 
189.102463 0.23768 
189.56752 0.031425 
189.926712 0.418955 
190.41011 0.027076 
190.95256 2.036914 
190.967621 0.628851 
191.143021 2.69771 
191.953964 0.121906 
191.975388 0.835863 
192.146439 0.032355 
192.95163 0.706521 
193.046921 0.032681 
194.977356 0.029177 
195.053726 0.07431 
195.091766 0.909032 
195.122284 0.031922 
195.149658 0.043497 
196.096268 0.027898 
197.014893 0.217728 
199.013107 0.047427 
200.955902 11.558319 
201.058304 0.018766 
201.460052 0.018884 
201.931503 0.048242 
201.959457 4.070167 
202.074966 0.29236 
202.61113 0.1489 
202.663589 0.250175 
202.952713 54.337418 
203.022842 0.168221 
203.10376 0.029436 
203.180115 0.023804 
203.931 0.022192 
203.954224 8.545514 
204.102554 0.061422 
204.951569 20.972471 
205.038544 0.05346 
205.939697 0.492748 
205.987793 5.558957 
206.117859 0.047479 
206.977921 0.426709 
206.988571 0.525072 
207.937866 0.160332 
208.13324 1.830423 
208.207367 0.028841 
209.136978 0.11462 
211.057465 0.093939 
211.615692 0.023519 
211.668945 0.453737 
213.008453 0.097335 
213.131378 0.021272 
213.144089 0.024412 
215.139618 0.063225 
215.49614 0.653461 
215.510269 0.338782 
217.944794 0.045098 
217.969238 0.026293 
218.966232 7.470115 
218.979874 1.95817 
219.056427 0.101031 
219.080048 0.122368 
219.17453 2.399882 
219.942291 1.338093 
219.96907 2.897793 
219.981323 1.084171 
220.084778 0.021044 
220.096634 0.02977 
220.168976 1.560353 
220.188324 0.025756 
220.673782 0.067671 
220.963181 30.632156 
220.974365 1.110884 
221.033188 1.088269 
221.115219 0.308231 
221.153488 1.335392 
221.173798 0.461422 
221.941025 0.146141 
221.964767 4.963535 
221.976395 0.073211 
222.076096 0.230413 
222.149979 0.020976 
222.962021 11.870472 
223.169189 1.020617 
223.863358 0.026118 
225.065384 0.02345 
226.343109 0.023189 
230.422882 0.025762 
231.060028 0.020867 
232.981949 0.062228 
233.984695 0.024432 
234.148697 1.409786 
234.185806 0.052117 
234.978973 1.325841 
235.153107 0.16717 
235.980133 0.139458 
236.164413 0.411115 
236.360123 0.022193 
236.97731 0.362732 
237.169662 0.025949 
237.97583 0.018076 
239.043076 0.041578 
239.081467 0.080151 
240.146667 0.022894 
243.979477 0.027823 
244.535706 0.021039 
247.110138 0.026148 
247.980453 0.487459 
248.090851 0.030962 
248.127014 0.031644 
248.490646 0.021784 
248.928635 0.053888 
249.090958 3.869106 
249.107498 0.034194 
249.145844 0.953347 
249.159851 1.404305 
250.095306 0.746669 
250.177765 100.0 
251.004715 0.159025 
251.124237 0.032077 
251.18132 6.513536 
252.98317 0.069337 
254.963364 0.025727 
258.049438 0.020604 
259.123657 0.024131 
262.128662 0.02715 
262.142792 0.05685 
262.180298 0.131375 
264.100891 0.471246 
264.159088 0.039014 
264.194 0.758307 
265.019775 1.130539 
265.122284 0.489097 
265.990967 3.043422 
266.019226 0.079027 
266.999725 3.505906 
267.0159 0.03187 
267.999481 0.469541 
268.978729 2.339057 
268.994019 1.165359 
269.01416 2.057786 
270.015045 0.127859 
270.242767 0.444329 
270.993958 2.08862 
271.009186 0.035166 
279.041443 0.02085 
279.093445 1.792451 
279.134308 0.212655 
279.15625 0.705334 
279.171448 0.048657 
279.191376 0.084161 
279.205719 1.064903 
279.243195 0.367889 
280.08078 0.048851 
280.097839 0.698425 
280.117798 5.301564 
280.134857 0.306798 
280.151947 1.470767 
280.171356 0.16663 
280.189117 1.353124 
280.207642 0.356675 
280.226379 1.176555 
280.263367 1.972463 
280.299866 0.093714 
281.014832 3.547586 
281.030121 0.167009 
281.033051 0.177491 
281.051239 4.711968 
281.079773 0.020991 
281.098206 0.29363 
281.117981 1.226246 
281.135315 0.529894 
281.14917 0.742536 
281.171875 4.765208 
281.186371 3.431465 
281.207703 0.114973 
281.226044 0.071995 
281.266785 0.068765 
281.294708 0.479203 
282.01532 0.686517 
282.051636 1.20948 
282.074982 0.028039 
282.096497 0.522365 
282.120148 0.052392 
282.13681 0.755844 
282.160339 0.515921 
282.175842 0.159694 
282.188751 0.189258 
282.204254 7.975546 
282.222595 0.596207 
282.242432 7.54461 
282.279205 0.669133 
282.97702 0.211211 
282.994019 11.360246 
283.015808 0.164097 
283.030334 15.629698 
283.059143 0.494629 
283.108337 0.918017 
283.151337 2.034382 
283.18808 0.031136 
283.205994 0.562495 
283.224274 0.891473 
283.245941 0.202918 
283.263153 0.374513 
284.030457 3.43941 
284.116333 0.084876 
285.009766 0.270375 
285.027344 1.065074 
289.004608 0.433434 
298.941772 0.063908 
299.061615 50.073723 
300.062164 12.220209 
300.147797 2.229625 
300.983215 0.751532 
301.058685 3.938066 
304.955627 0.026827 
END IONS

