BEGIN IONS
PEPMASS=343.115
CHARGE=1+
COMPOUNDNAME=Mycophenolic Acid
LIBRARYQUALITY=3
SMILES=N/A
INCHIKEY=HPNSFSBZBAHARI-RUDMXATFSA-N
INCHI=InChI=1S/C17H20O6/c1-9(5-7-13(18)19)4-6-11-15(20)14-12(8-23-17(14)21)10(2)16(11)22-3/h4,20H,5-8H2,1-3H3,(H,18,19)/b9-4+
MSLEVEL=2
SOURCE_INSTRUMENT=N/A-ESI-QFT
FILENAME=library_mgf.mgf
SEQ=*..*
IONMODE=positive
ORGANISM=MONA
NAME=Mycophenolic Acid [M+Na]+
PI=MoNA
DATACOLLECTOR=MoNA:VF-NPL-QEHF004797
PUBMED=N/A
SUBMITUSER=mwang87
TAGS=
SPECTRUMID=CCMSLIB00004695860
SCANS=4797
50.2635 4.600251 
50.473518 3.814344 
50.494354 14.204278 
50.550449 6.265497 
50.64629 13.877357 
51.065773 4.38554 
51.274647 3.534825 
51.449154 4.398309 
51.921001 3.09368 
52.681698 4.419232 
53.106754 13.030066 
53.13377 6.468018 
53.351971 2.743942 
53.562038 6.934062 
53.61306 4.154991 
53.625233 9.078103 
53.743488 13.961587 
53.74622 4.911664 
53.847481 7.349902 
54.007183 6.612723 
54.109398 11.365484 
54.159035 6.421167 
54.636147 3.869227 
54.763874 14.64183 
54.848637 13.02161 
55.066933 2.369921 
55.08712 14.484228 
55.920338 12.892086 
56.159565 2.644005 
56.405891 3.216443 
56.477032 5.92582 
56.626102 9.40029 
57.041431 2.345397 
57.063011 4.31299 
57.071564 7.587706 
57.292931 7.055027 
57.325626 10.528702 
57.456699 12.744307 
57.46323 14.388346 
57.532494 5.88421 
57.56636 14.49384 
57.591625 14.117191 
57.625919 4.658929 
58.888271 3.789202 
59.109272 10.335789 
59.757236 6.414248 
59.859665 17.220066 
60.17387 16.916132 
60.759174 4.462298 
61.138092 12.034411 
61.931065 9.696185 
62.104759 4.050356 
62.559349 4.095579 
62.609642 18.46546 
62.715252 3.874645 
62.919926 11.749652 
63.228821 11.018164 
63.351337 3.032039 
63.932545 8.259053 
64.00808 3.114687 
64.179329 15.609139 
64.296982 10.301382 
65.016533 17.640629 
65.6791 5.787114 
66.107925 11.324952 
66.269272 14.468866 
66.876343 14.422408 
66.948151 2.675357 
67.213928 5.913322 
67.223289 8.270804 
67.34285 6.550978 
67.388222 3.304596 
68.079597 14.492637 
69.569244 4.985079 
69.932198 6.874683 
69.995712 13.873489 
70.219131 6.087576 
70.756714 11.590019 
71.183968 2.555797 
71.995659 9.251214 
72.103798 10.221044 
72.262169 5.253991 
72.787994 13.453749 
73.011971 14.202186 
73.78717 5.70686 
73.987747 4.002487 
74.665054 2.224082 
74.76841 2.382004 
75.018608 10.291159 
75.742912 13.360214 
75.966309 14.829604 
76.047516 5.735189 
76.099503 3.501195 
76.747597 3.819183 
76.791016 2.846381 
76.97876 2.805348 
77.12252 8.192135 
77.433052 4.817593 
77.568169 7.058698 
77.84919 1.833897 
78.407654 4.410994 
78.56321 2.499603 
79.169838 2.588101 
79.173439 12.331613 
79.638199 17.847633 
79.819725 17.513 
79.838905 2.128943 
80.073845 2.05172 
81.142387 13.273239 
81.478142 15.146629 
83.193748 3.819932 
84.526314 3.748441 
85.190445 13.732823 
85.784828 12.751391 
86.726288 3.451418 
88.275185 3.438409 
90.396851 3.707992 
90.580406 4.610867 
91.293121 14.086301 
92.455879 3.629571 
92.727554 9.103687 
93.610695 15.566162 
93.734871 2.823861 
96.35083 15.06225 
96.473541 9.801991 
96.624405 3.431934 
98.016655 6.48805 
99.504578 2.65874 
100.349487 5.403115 
100.877472 4.042139 
101.973732 15.605158 
103.104675 6.670885 
103.489685 9.320266 
104.088753 12.022302 
104.843468 14.871047 
105.24263 10.784713 
107.540054 7.132055 
108.111435 4.098931 
108.336121 16.731113 
109.518539 15.819706 
110.317146 3.048929 
110.474434 9.844632 
110.482605 12.845813 
110.531799 6.305148 
111.081444 8.408841 
112.12265 8.588423 
112.614342 8.805617 
113.207375 4.067893 
113.482483 7.29248 
114.541962 3.521687 
114.934067 6.551413 
117.179367 9.51199 
117.291222 2.448883 
117.462585 10.622707 
117.908363 2.245416 
118.350044 3.211818 
118.418602 17.002035 
119.476036 9.950365 
119.716415 11.397447 
119.736351 10.13438 
120.826561 14.132289 
121.754501 6.455958 
123.969528 2.97494 
124.040291 6.195399 
124.544739 6.723531 
125.079849 7.042165 
125.28521 5.886713 
125.835373 3.4446 
125.850998 3.557838 
126.025749 2.140531 
126.607216 2.056118 
126.75367 12.246369 
128.184143 4.276384 
128.555374 3.998598 
130.139862 8.460158 
131.155716 7.168763 
132.460999 8.791971 
133.034363 4.34057 
134.874176 12.464603 
136.294373 2.965662 
136.607071 16.412174 
137.294495 13.814931 
139.070312 2.483725 
140.382599 4.024136 
140.901123 13.246932 
141.662216 6.755074 
142.567245 2.354704 
142.649612 6.088494 
143.712631 3.881001 
144.184174 17.461494 
144.640579 14.355743 
145.105789 14.299164 
147.634857 15.257456 
147.7686 3.935569 
149.139404 7.240681 
149.420166 6.24506 
154.412918 6.318126 
154.639008 16.533363 
156.286331 2.524213 
156.443054 3.843147 
161.368973 13.243291 
165.799942 15.944917 
166.378128 2.530872 
167.350098 1.988912 
168.351166 17.117332 
172.126328 15.795017 
172.386169 6.026833 
172.506607 13.018836 
173.778702 16.045223 
175.157516 7.181086 
175.401306 2.294297 
175.4561 11.721004 
175.826462 17.707779 
175.936356 3.39526 
177.04277 4.059904 
179.392105 9.02783 
180.461365 2.256328 
182.142609 12.265491 
182.35257 5.489601 
183.229401 14.770027 
184.277817 4.447507 
187.117264 9.260622 
190.989166 5.783295 
192.393387 17.508615 
193.51265 2.446261 
195.427277 7.073948 
196.383667 10.181838 
197.302353 3.992329 
200.237244 4.266731 
200.290344 8.60468 
201.355347 16.563704 
203.345032 2.176537 
206.446671 4.056869 
206.793167 4.160301 
209.752808 3.915581 
212.531082 6.672449 
213.650635 2.204563 
214.094971 14.422021 
214.568619 13.512506 
215.409988 5.967219 
218.193985 15.192007 
218.954803 14.701263 
219.966675 100.0 
219.980652 81.174202 
224.320801 2.492902 
226.095306 2.05437 
231.585648 8.676984 
231.829819 9.466265 
232.475082 4.232177 
232.568283 4.485939 
236.909943 5.879017 
238.966522 6.836697 
240.476456 3.619244 
243.412216 11.159982 
243.723114 11.303807 
249.084869 13.211186 
249.124634 13.00372 
250.34697 7.145924 
251.389175 2.210841 
255.976532 4.162798 
260.031189 10.532758 
270.413544 4.27714 
279.62619 3.38241 
283.697052 4.654804 
284.904816 16.700283 
294.937073 12.714236 
295.907471 6.458347 
300.843903 6.569319 
307.861755 10.410035 
308.918365 15.945331 
328.993439 15.280272 
330.420258 3.808958 
332.985596 2.467833 
335.742645 4.630514 
336.060425 2.862939 
337.059143 9.789675 
342.478668 15.842194 
347.105316 13.08476 
349.209167 17.231779 
350.811127 20.666891 
356.65509 3.089553 
356.959778 14.233407 
362.046082 4.302061 
367.792542 14.97436 
369.731506 10.37003 
END IONS

