BEGIN IONS
PEPMASS=521.262
CHARGE=1+
COMPOUNDNAME=(3E,5S,7R,8R,11E,13S,15R,16R)-3,5,7,11,13,15-hexamethyl-8,16-bis(1,3-oxazol-5-ylmethyl)-1,9-dioxacyclohexadeca-3,11-diene-2,10-dione
LIBRARYQUALITY=3
SMILES=N/A
INCHIKEY=LAJRJVDLKYGLOO-HLRFMGGZSA-N
INCHI=InChI=1S/C28H38N2O6/c1-17-7-19(3)25(11-23-13-29-15-33-23)35-28(32)22(6)10-18(2)8-20(4)26(12-24-14-30-16-34-24)36-27(31)21(5)9-17/h9-10,13-20,25-26H,7-8,11-12H2,1-6H3/b21-9+,22-10+/t17-,18-,19+,20+,25+,26+/m0/s1
MSLEVEL=2
SOURCE_INSTRUMENT=N/A-ESI-QFT
FILENAME=library_mgf.mgf
SEQ=*..*
IONMODE=positive
ORGANISM=MONA
NAME=(3E,5S,7R,8R,11E,13S,15R,16R)-3,5,7,11,13,15-hexamethyl-8,16-bis(1,3-oxazol-5-ylmethyl)-1,9-dioxacyclohexadeca-3,11-diene-2,10-dione [M+Na]+
PI=MoNA
DATACOLLECTOR=MoNA:VF-NPL-QEHF019225
PUBMED=N/A
SUBMITUSER=mwang87
TAGS=
SPECTRUMID=CCMSLIB00004710288
SCANS=19225
50.505177 0.018618 
50.725353 0.002648 
51.861595 0.004216 
51.890724 0.016817 
52.15696 0.003159 
52.347591 0.015333 
52.470238 0.013681 
53.059811 0.016879 
53.235222 0.003797 
54.15332 0.011569 
54.239635 0.015871 
55.054428 0.028724 
55.250698 0.012976 
55.840244 0.007277 
55.910252 0.007061 
55.994923 0.01382 
56.294445 0.002305 
56.734936 0.002381 
57.033703 0.757246 
57.07011 0.003974 
57.254978 0.013591 
57.879215 0.006624 
58.637424 0.006871 
59.049313 0.39008 
59.21719 0.010319 
59.236534 0.004192 
59.419029 0.007582 
60.081013 0.004826 
60.13797 0.002305 
60.446407 0.008623 
61.440052 0.013524 
61.598652 0.004422 
61.717865 0.009778 
62.332928 0.014047 
62.424942 0.003607 
62.833988 0.009696 
62.912056 0.01785 
63.003834 0.016543 
63.261459 0.01502 
63.504963 0.004667 
64.410919 0.004463 
64.829796 0.010301 
65.461014 0.012725 
65.567451 0.004524 
66.754456 0.004822 
67.054253 0.062414 
67.303062 0.009983 
67.330307 0.014167 
67.913933 0.016448 
68.983253 0.002122 
69.033569 0.00357 
69.069923 0.149631 
70.335724 0.004004 
70.556061 0.002067 
71.085411 0.002691 
71.24015 0.00452 
71.801529 0.015329 
72.044327 0.004504 
72.364113 0.018887 
73.05481 0.014728 
73.142822 0.005243 
73.608681 0.002755 
75.802513 0.004871 
79.054108 0.021038 
80.001289 0.011053 
80.049339 0.070563 
80.218391 0.018757 
80.582138 0.010953 
81.069824 0.151537 
81.53791 0.020516 
81.886673 0.015472 
82.028664 0.071282 
83.04908 0.055447 
83.085442 0.033768 
83.12085 0.009899 
83.246834 0.002358 
83.363243 0.007982 
83.637077 0.004937 
83.725616 0.015016 
84.044312 0.007131 
85.064682 0.098745 
85.484978 0.002464 
85.883743 0.007865 
86.09623 0.007697 
86.181793 0.014015 
87.044083 0.029497 
88.075912 0.002456 
88.419121 0.012197 
88.731438 0.015424 
89.059578 0.493932 
89.783592 0.019053 
91.054276 0.006375 
91.564247 0.011875 
93.069817 0.122255 
93.587692 0.0044 
94.065132 0.003666 
95.019356 0.004323 
95.049065 0.097976 
95.085426 0.496687 
95.43087 0.010113 
95.610924 0.014048 
95.704369 0.004463 
96.04438 0.042518 
96.08046 0.002678 
96.088913 0.007617 
97.064713 0.104408 
97.07518 0.00598 
97.101402 0.005335 
98.450844 0.014294 
99.080345 0.197311 
99.379074 0.004678 
99.555794 0.015459 
101.059692 0.019796 
101.454742 0.01676 
103.358475 0.014539 
103.876427 0.016056 
104.463661 0.00798 
105.033485 0.003349 
105.069756 0.08383 
105.555298 0.005082 
105.572639 0.01565 
105.901779 0.005081 
106.073036 0.003149 
106.619713 0.015374 
106.709137 0.012745 
106.755875 0.013788 
107.085449 0.35683 
107.751801 0.012248 
108.08886 0.015084 
108.411179 0.009758 
109.064629 0.218504 
109.101074 0.283114 
110.059975 0.02661 
110.068214 0.002397 
110.104431 0.003968 
111.080284 0.122155 
111.117256 0.005942 
113.031784 0.011975 
113.059624 0.10818 
113.079926 0.010848 
113.095978 0.01222 
114.951721 0.002541 
115.075317 0.036768 
115.315941 0.004769 
116.945381 0.004292 
117.06974 0.003485 
117.491051 0.006791 
117.619171 0.004256 
117.981026 0.010104 
119.085464 0.089998 
119.211212 0.013996 
119.652527 0.013588 
121.064796 0.009096 
121.10112 0.684743 
122.059982 0.174757 
122.096939 0.009301 
122.104347 0.069647 
123.062943 0.018188 
123.080315 0.269592 
123.116783 0.063838 
124.075279 0.010263 
124.636688 0.00768 
125.05986 0.005636 
125.095879 0.028767 
126.984459 0.011248 
127.075302 0.007827 
127.111656 0.016159 
129.686661 0.015971 
131.04895 0.087862 
131.085526 0.03899 
131.470657 0.0025 
131.55722 0.018717 
131.713867 0.01123 
132.561722 0.003402 
133.085815 0.12264 
133.101089 0.107906 
133.760742 0.009376 
134.059509 0.009981 
135.080292 0.025653 
135.111465 0.004633 
135.116699 0.222277 
136.07576 0.022571 
136.11998 0.016013 
137.096008 0.046085 
137.132324 0.008173 
138.091263 0.076757 
138.247681 0.016457 
138.31778 0.009686 
139.094772 0.005715 
139.111481 0.00581 
139.25972 0.014182 
139.539978 0.011949 
141.090851 0.002656 
143.070404 0.010031 
143.085693 0.004908 
145.10112 0.065516 
147.116776 0.062684 
147.581528 0.013635 
148.075562 0.016448 
148.77121 0.015532 
149.059616 0.028815 
149.096039 0.107207 
149.132263 0.050847 
150.091263 0.003014 
150.658615 0.003054 
150.691528 0.007835 
151.111649 0.023668 
151.73056 0.003099 
153.55838 0.014555 
157.101212 0.041233 
159.116638 0.570903 
160.120102 0.131247 
160.207367 0.003607 
161.096146 0.013986 
161.124176 0.002988 
161.13237 0.022046 
162.091034 0.003576 
163.111588 0.126226 
164.115173 0.008896 
165.090622 0.002676 
165.433807 0.009489 
166.931442 0.006946 
167.107071 0.00475 
168.065384 0.10366 
169.101105 0.179147 
170.977356 0.017099 
171.039978 0.012066 
171.116776 0.024756 
171.564728 0.007663 
172.132019 0.020434 
172.705948 0.007857 
173.796921 0.015394 
174.090332 0.002425 
175.111923 0.012319 
175.148056 0.003259 
175.900406 0.013213 
176.1064 0.003387 
177.092072 0.002383 
177.127243 0.056744 
178.129852 0.00282 
180.029022 0.01508 
180.460968 0.018316 
181.085449 0.002431 
182.080994 3.211903 
183.089172 0.123641 
184.096802 0.013583 
185.130981 0.0084 
186.076096 0.05965 
187.111664 0.048459 
187.259186 0.019868 
188.115921 0.011596 
188.124817 0.014229 
189.161041 0.007743 
190.074936 0.010851 
190.122452 0.081775 
190.344986 0.013646 
191.106476 0.052236 
191.12616 0.027996 
191.810349 0.004451 
192.110291 0.009814 
192.860321 0.007658 
193.122437 0.002396 
193.435226 0.004724 
193.477005 0.004572 
194.08107 0.006239 
195.116898 0.062311 
196.096786 0.040821 
196.107544 0.01362 
196.830505 0.00574 
198.075821 0.499085 
200.055588 0.002613 
204.138184 0.307259 
204.900711 0.00491 
205.122543 0.004456 
205.141647 0.089984 
206.080826 0.035455 
208.096756 0.216183 
208.133072 1.883175 
209.136475 0.412601 
210.075867 0.106248 
210.139908 0.012753 
210.325577 0.007373 
210.988449 0.01384 
211.086212 0.14518 
211.898224 0.005165 
212.091599 1.012312 
212.23764 0.029614 
213.046661 0.371114 
213.058304 0.818385 
213.066284 0.699834 
213.094467 0.008975 
213.127167 0.005359 
214.070755 0.105898 
217.924622 0.010857 
220.096634 0.042927 
221.104446 0.078605 
221.206558 0.01026 
222.11232 0.173035 
222.564255 0.007598 
222.928268 0.00999 
223.134094 0.003678 
223.148575 0.021407 
224.091599 0.026789 
224.12738 0.028353 
225.102005 0.005722 
226.10701 0.012746 
226.216751 0.013942 
227.468048 0.011199 
228.980286 0.005042 
231.090057 0.003298 
232.133286 0.131424 
233.135895 0.034359 
234.112106 0.05822 
236.127853 0.407347 
238.107437 0.194492 
238.143921 0.030324 
238.648209 0.009349 
239.115829 0.003698 
240.170471 0.014588 
240.232117 0.765558 
241.096878 0.520958 
241.234879 0.00437 
242.099686 0.007248 
242.680145 0.002789 
244.94371 0.014818 
246.11232 0.002943 
246.134567 0.002622 
248.128098 0.035074 
249.100571 0.004988 
250.107239 0.018502 
250.143723 0.146171 
251.131317 0.007082 
251.147461 0.030926 
252.122696 0.11454 
253.955872 0.004512 
254.735596 0.015517 
256.943756 0.002582 
258.197968 0.002653 
260.740448 0.014912 
261.033112 0.002707 
262.106537 0.003262 
262.143738 0.017591 
264.123199 0.087034 
266.138519 0.060575 
266.232513 0.015256 
272.125458 4.036465 
273.128998 0.477352 
274.143341 0.007006 
276.122742 0.007202 
276.160156 0.009369 
279.157104 0.054394 
280.117432 0.021309 
284.101227 0.015383 
284.505066 0.020116 
288.158386 0.002967 
289.132446 0.039908 
290.106171 0.002495 
290.123077 0.289889 
290.174866 0.049476 
291.125854 0.007976 
291.154419 0.011577 
292.084656 0.003517 
296.024231 0.012272 
304.164673 0.00325 
304.31131 0.003797 
306.100861 0.190854 
306.169525 0.017414 
306.421021 0.015686 
307.104553 0.065154 
307.141663 0.032154 
308.113495 0.004554 
308.133789 0.902095 
309.136383 0.107055 
310.094604 0.050813 
310.131592 0.008763 
316.153137 0.004959 
320.320679 0.002429 
320.918396 0.008748 
321.167145 0.180382 
324.111328 0.18324 
325.114685 0.069125 
328.10437 0.02992 
330.205627 0.015331 
331.158661 0.00541 
332.061401 0.01027 
333.974731 0.014694 
334.325806 0.011178 
342.421997 0.016208 
345.594696 0.009867 
346.200104 0.004418 
347.174316 0.02747 
351.555573 0.008441 
353.445587 0.006992 
360.180634 0.003548 
362.799316 0.011663 
363.43161 0.015396 
364.624298 0.003561 
365.14679 0.022864 
367.30188 0.002865 
371.136536 0.00926 
376.174255 0.011884 
377.179047 0.014664 
383.15741 0.032899 
385.185883 1.269629 
386.191132 0.287287 
386.232452 0.011637 
393.404358 0.008197 
399.178101 0.009136 
400.207764 0.00926 
401.166595 0.706952 
402.171631 0.052453 
403.183289 0.004461 
404.23999 0.009262 
405.215515 0.008409 
410.632507 0.009275 
419.177155 1.000329 
420.181 0.059153 
423.91745 0.015695 
429.278992 0.020932 
431.6008 0.00494 
437.1875 0.066106 
443.159607 0.184027 
444.163025 0.024698 
444.933777 0.011985 
447.180481 0.003631 
447.292358 1.230392 
448.193085 0.016758 
448.295959 0.421209 
461.061096 0.007497 
461.170135 0.656804 
462.172424 0.057505 
463.258057 0.020441 
470.664032 0.00279 
479.180359 0.315302 
480.182953 0.020247 
493.950165 0.008353 
509.509644 0.014554 
511.908478 0.008739 
514.135925 0.002926 
516.812439 0.015537 
519.312378 1.157942 
519.35083 1.044808 
520.25061 0.529535 
520.316589 0.514554 
520.356506 0.499321 
521.191772 0.091243 
521.261475 100.0 
521.305725 7.033551 
521.351562 0.355887 
522.264832 31.183819 
522.309265 1.926272 
522.346985 0.081162 
522.59613 2.173439 
523.2677 3.6476 
523.314087 0.638375 
531.216614 0.016675 
534.939392 0.015822 
539.275635 0.055834 
545.16748 0.016887 
END IONS

