BEGIN IONS
PEPMASS=268.3
CHARGE=1+
COMPOUNDNAME=ReSpect:PS004002 Adenosine|9-beta-D-Ribofuranosyladenine|Adenine riboside|Sandesin|Boniton|Myocol|Nucleocardyl|Adenocard
LIBRARYQUALITY=3
SMILES=C1=NC2=C(C(=N1)N)N=CN2C3C(C(C(O3)CO)O)O
INCHIKEY=OIRDTQYFTABQOQ-UHFFFAOYSA-N
INCHI=N/A
MSLEVEL=2
SOURCE_INSTRUMENT=ESI-Flow-injection QqQ/MS
FILENAME=respect_8_1_2014_GNPS_peaks.mgf
SEQ=*..*
IONMODE=Positive
ORGANISM=RESPECT
NAME=ReSpect:PS004002 Adenosine|9-beta-D-Ribofuranosyladenine|Adenine riboside|Sandesin|Boniton|Myocol|Nucleocardyl|Adenocard [M+H]
PI=Putative ReSpect Match
DATACOLLECTOR=ReSpect
PUBMED=N/A
SUBMITUSER=mwang87
TAGS=
SPECTRUMID=CCMSLIB00000212495
SCANS=1906
135.0 183.0 
136.0 999.0 
267.0 37.0 
268.0 121.0 
END IONS

