BEGIN IONS
PEPMASS=333.0
CHARGE=1+
COMPOUNDNAME=Massbank:KO004028 Specitinomycin|Spectinomycin
LIBRARYQUALITY=3
SMILES=CNC(C(O)3)C(O)C([H])(O1)C([H])(C(NC)3)OC(O)(C(=O)2)C([H])(OC(C)C2)1
INCHIKEY=UNFWWIHTNXNPBV-UHFFFAOYSA-N
INCHI=1S/C14H24N2O7/c1-5-4-6(17)14(20)13(21-5)22-12-10(19)7(15-2)9(18)8(16-3)11(12)23-14/h5,7-13,15-16,18-20H,4H2,1-3H3/t5-,7-,8+,9+,10+,11-,12-,13+,14+/m1/s1
MSLEVEL=2
SOURCE_INSTRUMENT=ESI-LC-ESI-QQ
FILENAME=Massbank_ESI_positive_8_1_2014_peaks.mgf
SEQ=*..*
IONMODE=Positive
ORGANISM=MASSBANK
NAME=Massbank:KO004028 Specitinomycin|Spectinomycin [M+H]+
PI=Putative Massbank Match
DATACOLLECTOR=Massbank
PUBMED=N/A
SUBMITUSER=mwang87
TAGS=
SPECTRUMID=CCMSLIB00000220578
SCANS=9820
94.5 9901.0 
100.0 29703.0 
110.2 14851.5 
114.9 29703.0 
116.1 69307.0 
117.1 39604.0 
131.8 84158.5 
133.2 64356.5 
140.0 34653.5 
150.4 24752.5 
152.9 54455.5 
157.9 54455.5 
170.8 9901.0 
175.1 44554.5 
176.1 183168.5 
180.4 14851.5 
185.3 118812.0 
185.9 123762.5 
189.4 113861.5 
197.6 39604.0 
203.6 39604.0 
241.3 44554.5 
242.2 188119.0 
260.3 64356.5 
304.3 24752.5 
316.7 94059.5 
333.7 8757434.5 
END IONS

