BEGIN IONS
PEPMASS=432.165
CHARGE=1+
COMPOUNDNAME=(5S,8S)-8-benzoyl-2-[(Z,1S,2S)-1,2-dihydroxyhex-3-enyl]-9-hydroxy-8-methoxy-3-methyl-1-oxa-7-azaspiro[4.4]non-2-ene-4,6-dione
LIBRARYQUALITY=3
SMILES=N/A
INCHIKEY=SLYDIPAXCVVRNY-BBJHAQHQSA-N
INCHI=InChI=1S/C22H25NO8/c1-4-5-11-14(24)15(25)16-12(2)17(26)21(31-16)19(28)22(30-3,23-20(21)29)18(27)13-9-7-6-8-10-13/h5-11,14-15,19,24-25,28H,4H2,1-3H3,(H,23,29)/b11-5-/t14-,15-,19?,21+,22+/m0/s1
MSLEVEL=2
SOURCE_INSTRUMENT=N/A-ESI-QFT
FILENAME=library_mgf.mgf
SEQ=*..*
IONMODE=positive
ORGANISM=MONA
NAME=(5S,8S)-8-benzoyl-2-[(Z,1S,2S)-1,2-dihydroxyhex-3-enyl]-9-hydroxy-8-methoxy-3-methyl-1-oxa-7-azaspiro[4.4]non-2-ene-4,6-dione [M+H]+
PI=MoNA
DATACOLLECTOR=MoNA:VF-NPL-QEHF020454
PUBMED=N/A
SUBMITUSER=mwang87
TAGS=
SPECTRUMID=CCMSLIB00004711517
SCANS=20454
50.015537 0.160822 
50.221214 0.081214 
50.264393 0.05844 
50.294956 0.053121 
50.582489 0.066496 
50.929214 0.045147 
51.023277 0.66794 
51.416077 0.039218 
51.555557 0.038983 
51.675705 0.068823 
51.791492 0.105981 
51.940281 0.24391 
51.953384 0.042548 
52.08427 0.048308 
53.002544 0.063471 
53.038879 11.464506 
53.730404 0.046093 
54.034107 0.050322 
54.673283 0.041677 
54.694332 0.064041 
55.018116 3.27031 
55.054516 5.528428 
55.704552 0.075377 
55.934605 0.138084 
56.049755 0.653956 
56.114216 0.042112 
56.424652 0.055462 
56.965027 59.39856 
57.033752 1.561138 
57.070114 3.64456 
57.466309 0.038085 
58.029045 0.112398 
58.065365 5.035473 
58.374619 0.042918 
58.558128 0.0473 
58.77903 0.061167 
58.809715 0.067432 
58.827446 0.064538 
58.955086 0.058778 
59.049374 1.459508 
59.073215 0.193805 
59.310596 0.071183 
59.880898 0.049363 
60.044586 2.753305 
60.080948 0.226386 
60.957836 0.039406 
61.010838 1.71283 
61.9487 0.07574 
62.018593 0.27683 
63.791695 0.065626 
64.666969 0.051653 
65.038704 0.905249 
65.174545 0.058475 
66.427956 0.061867 
67.054321 6.269915 
67.271034 0.073095 
67.282379 0.045055 
67.347 0.052638 
68.049545 0.927396 
68.997139 2.067434 
69.033531 2.520079 
69.044891 0.066039 
69.069908 3.248773 
70.028984 0.058087 
70.065186 4.19554 
70.375443 0.061053 
70.980461 0.576982 
71.012878 0.071374 
71.049164 2.323638 
71.085571 0.399257 
71.492973 0.060965 
71.534691 0.110497 
71.951889 0.936113 
72.044357 0.126244 
72.080765 0.534321 
73.028374 0.17629 
73.046753 0.193396 
73.059898 0.056049 
73.064774 0.115534 
73.695694 0.076119 
74.97538 0.186492 
76.129417 0.092062 
76.647629 0.102046 
76.741829 0.052456 
76.967636 0.057093 
77.038567 2.32665 
77.492035 0.041061 
79.021164 1.251931 
79.054207 6.760185 
79.546745 0.039139 
80.0495 0.700261 
80.3041 0.054887 
80.693146 0.057438 
81.033478 2.292128 
81.044777 0.19243 
81.069893 5.417429 
81.181046 0.073651 
81.440636 0.062767 
82.065086 1.159512 
82.073082 0.047072 
82.563942 0.042792 
83.012695 1.642266 
83.04911 4.868713 
83.060356 0.163982 
83.08548 0.153956 
83.601578 0.052627 
83.938858 0.062465 
83.975708 0.12299 
84.044418 0.523882 
84.08075 1.287708 
84.932205 0.096563 
84.959663 5.327716 
85.028397 0.461569 
85.055428 0.056395 
85.064743 0.273572 
86.059967 0.256239 
86.096359 0.638833 
86.39312 0.087334 
86.683182 0.061899 
87.044037 2.184007 
87.248833 0.040878 
87.385094 0.053774 
88.936722 0.044449 
88.990936 0.040967 
89.037819 0.060118 
89.059616 1.577366 
89.758125 0.051966 
91.054276 9.534654 
91.057228 1.377599 
91.795204 0.060874 
92.018456 0.063869 
92.049385 0.348054 
92.057442 0.21106 
92.985847 0.044297 
93.033516 0.048111 
93.069862 3.397551 
94.065056 1.334042 
94.875275 0.061498 
95.04911 24.760031 
95.060326 3.479903 
95.085472 1.984351 
96.007942 1.159471 
96.044212 0.451606 
96.052414 0.986863 
96.080658 1.152969 
97.028297 0.442864 
97.064796 0.355058 
97.991669 0.062408 
98.060036 0.379071 
98.458351 0.061843 
98.975304 16.333748 
99.043968 0.620587 
99.080391 0.071252 
99.978539 0.079008 
100.512062 0.10299 
100.718262 0.064073 
101.059662 0.148651 
101.743347 0.050271 
101.983002 0.059781 
102.519096 0.079136 
102.970215 0.099231 
103.054207 2.074368 
103.913193 0.076584 
104.049393 0.493665 
105.033524 100.0 
105.04464 12.144309 
105.069893 3.576849 
105.16935 0.041361 
105.776779 0.065193 
106.036781 7.555902 
106.047943 0.205676 
106.065048 3.081661 
106.976486 0.11169 
107.049103 1.121957 
107.072945 0.108162 
107.08548 2.213878 
107.089478 0.039216 
108.044327 0.30281 
108.080612 0.90873 
108.087723 0.045348 
109.028229 0.106711 
109.06469 1.444266 
109.075958 0.895721 
109.101288 0.134558 
109.718102 0.055617 
109.853348 0.080049 
110.060005 2.493928 
110.071289 0.120448 
110.096344 1.091869 
111.044044 1.138193 
111.091042 0.047205 
112.075783 0.190728 
113.936966 0.040808 
114.018532 2.37593 
114.750374 0.051388 
115.054108 1.061416 
115.852425 0.10079 
116.049416 1.164737 
116.243034 0.040119 
116.71627 0.045881 
116.779816 0.061649 
116.985802 12.923288 
117.057228 0.211076 
117.069748 1.497609 
118.065025 3.004785 
119.049088 0.330369 
119.072784 0.075207 
119.085526 3.082384 
119.720848 0.054586 
120.044418 0.049186 
120.080673 1.781311 
120.340271 0.052789 
121.02832 0.286983 
121.064705 2.748154 
121.076118 0.111669 
121.088341 0.057904 
121.100945 0.133825 
122.059944 0.762187 
122.09639 0.060599 
123.043922 0.976526 
123.080605 0.313276 
123.091751 0.236028 
124.039505 0.252111 
124.075607 0.655741 
124.111717 0.049054 
124.991074 1.293567 
125.023285 0.634438 
125.059486 0.211494 
125.071091 0.07536 
126.054886 0.206539 
126.798019 0.049537 
127.006447 0.707285 
127.049805 0.071634 
128.061951 0.595246 
128.407684 0.089982 
129.033829 0.065021 
129.069763 1.272939 
130.065033 1.906733 
131.001556 0.288508 
131.085495 0.478658 
132.04425 0.60581 
132.080688 0.556983 
133.064636 0.573793 
134.059937 3.347828 
134.071091 0.099428 
134.096191 0.667802 
134.978638 1.559876 
134.996368 6.026953 
135.001633 0.093458 
135.043823 0.706475 
135.067276 0.07846 
135.080261 0.226608 
135.091736 0.272905 
135.68425 0.062282 
136.039154 0.176315 
136.07576 0.757164 
136.111908 0.616243 
136.486298 0.104269 
137.011658 0.627161 
137.023224 0.066767 
137.059509 0.618849 
137.095932 0.052373 
138.05484 0.50607 
138.091156 0.17848 
138.127701 0.872891 
139.006668 0.292872 
139.03894 1.152555 
139.075027 0.044994 
140.070221 0.060436 
140.351379 0.10864 
140.839355 0.057501 
141.069794 0.265701 
142.01387 0.067047 
142.965149 0.056806 
143.001434 3.578303 
143.085526 0.631414 
144.044312 0.108356 
144.080597 0.485721 
144.980225 0.085405 
145.01709 0.679932 
145.076126 0.121111 
145.101257 0.053685 
145.41806 0.066037 
146.059982 1.532441 
146.083908 0.047497 
146.096191 0.158317 
146.316315 0.061958 
146.540237 0.075366 
146.974319 0.714006 
147.067719 0.089686 
147.080444 0.061433 
147.091537 0.300352 
148.075714 0.343135 
148.111816 0.06335 
149.059662 0.290765 
149.0961 0.051239 
149.107483 0.45845 
149.23024 0.039519 
150.05481 0.275126 
150.091248 0.304989 
151.038788 0.253125 
151.07576 0.057696 
151.998245 0.050555 
152.062103 0.068182 
152.070221 0.210759 
152.106812 2.522651 
152.989212 1.533727 
153.006699 0.218005 
153.018021 1.893439 
153.06987 0.227257 
153.932861 0.041586 
155.033676 9.344507 
155.060532 0.211425 
155.084564 0.105117 
155.812836 0.0921 
156.080688 0.100337 
157.017227 0.62614 
157.064728 0.064865 
157.07576 0.145034 
158.060013 0.426585 
158.09642 0.308107 
159.080063 0.144046 
159.091721 0.674997 
160.075623 0.452328 
160.111557 0.126117 
161.011871 2.343356 
161.107071 0.060114 
161.494156 0.090582 
162.054886 0.589838 
162.09108 0.129738 
162.990372 0.084483 
163.026978 0.055873 
163.038925 0.066159 
163.076004 0.061924 
164.070084 0.311982 
164.1073 0.196243 
165.175949 0.048286 
166.049271 0.152189 
166.085663 0.126286 
167.001358 0.93156 
167.033737 0.063584 
167.073227 0.056167 
168.080765 0.09187 
169.01712 0.267123 
169.063446 0.04816 
170.060028 0.161355 
170.095993 0.086701 
171.03299 0.065893 
171.055557 0.059872 
171.079987 0.094225 
171.091415 0.061314 
171.27327 0.119698 
172.075439 0.236467 
174.054947 0.190285 
174.091629 0.056379 
174.838791 0.064229 
175.026917 0.229307 
175.752121 0.056974 
176.070557 0.215914 
177.042526 0.064124 
177.101456 0.130998 
177.322708 0.115918 
177.799194 0.076196 
179.001556 0.439921 
179.073563 0.102884 
180.101532 1.665229 
181.017258 0.510844 
182.996414 0.070441 
183.055267 0.065969 
183.42543 0.061843 
184.004547 0.312048 
184.062943 0.237713 
184.075195 0.216352 
185.012054 3.460632 
185.070923 0.453752 
186.282166 0.079812 
187.028412 0.125337 
187.08606 0.130494 
188.070709 0.070682 
190.086472 0.055528 
191.037491 0.068865 
191.124039 0.052277 
192.033264 0.19449 
192.065643 0.097208 
192.10144 0.070929 
194.045334 0.068694 
194.996704 0.930102 
195.032684 0.082554 
195.066544 0.048842 
197.01207 3.628518 
198.019547 0.048611 
198.127136 0.068137 
198.991058 0.186903 
199.027451 0.11444 
199.075378 0.073409 
199.121857 0.065782 
201.006958 0.465241 
201.04393 0.060647 
201.102676 0.086795 
202.017273 0.815541 
202.085999 0.095575 
202.111893 0.044334 
203.022202 0.183866 
203.080963 0.048907 
204.048172 0.061188 
204.100952 0.069473 
205.01709 0.401295 
205.475189 0.073426 
206.926605 0.098958 
207.032288 0.054482 
208.117508 0.078424 
209.1064 0.051323 
209.876068 0.414147 
210.043884 0.167626 
210.67334 0.069937 
211.02739 0.069889 
211.086823 0.05374 
211.720993 0.065326 
213.00708 5.687337 
214.085526 0.126085 
215.022491 0.931872 
215.039551 0.108173 
215.081421 0.06901 
217.395432 0.06581 
218.994415 0.059348 
219.033356 0.134834 
219.868698 0.791295 
219.874817 0.933856 
220.028168 2.784907 
221.011963 1.296388 
221.047577 0.048882 
222.898453 1.247041 
223.027344 0.184996 
224.022461 0.073616 
226.002075 0.707724 
226.085968 0.436493 
227.039093 0.070889 
228.017273 0.129402 
229.002121 0.223582 
229.072006 0.068113 
229.132629 0.052073 
229.576889 0.070207 
230.081879 0.070485 
231.017456 5.78517 
231.029739 0.193203 
233.048553 0.26843 
236.022629 0.483685 
236.164612 0.084865 
237.079742 0.049944 
237.526321 0.044531 
238.038391 1.017687 
238.684708 0.043274 
239.0224 3.126716 
239.035065 0.075735 
239.116821 0.0774 
240.909103 1.767282 
241.002106 0.315035 
243.032791 0.204037 
244.012604 0.291777 
244.131546 0.042676 
245.046875 0.268379 
246.049759 0.058581 
247.012344 0.173218 
249.027908 0.333699 
250.039185 0.064472 
250.106476 0.046292 
254.033707 0.049956 
256.134033 0.049647 
257.033722 0.11511 
258.997101 0.061824 
259.012451 0.15316 
261.043213 2.455803 
262.101898 0.056865 
265.074402 0.109341 
270.24942 0.064621 
271.027008 0.384322 
273.025909 0.056205 
273.043976 0.079624 
277.004913 0.045573 
279.000671 0.067191 
279.05426 0.059218 
282.191284 0.098611 
282.776581 0.073843 
285.161316 0.046035 
287.018616 0.060072 
288.955261 0.062941 
289.037933 2.617832 
289.638763 0.083723 
290.042511 0.063296 
292.409668 0.067416 
293.069824 0.090371 
296.080383 0.100224 
305.158447 0.081904 
307.048615 0.197052 
332.084442 0.135729 
343.209717 0.058032 
349.087585 0.045872 
350.090912 1.086011 
366.943756 0.051512 
371.560272 0.068915 
375.200165 0.062971 
382.482239 0.050477 
384.104095 0.086009 
385.982544 0.039144 
396.368347 0.087372 
402.7258 0.061134 
431.205536 0.083784 
432.953552 0.065476 
438.835724 0.044066 
END IONS

