BEGIN IONS
PEPMASS=271.06
CHARGE=1+
COMPOUNDNAME=Emodin
LIBRARYQUALITY=3
SMILES=N/A
INCHIKEY=RHMXXJGYXNZAPX-UHFFFAOYSA-N
INCHI=InChI=1S/C15H10O5/c1-6-2-8-12(10(17)3-6)15(20)13-9(14(8)19)4-7(16)5-11(13)18/h2-5,16-18H,1H3
MSLEVEL=2
SOURCE_INSTRUMENT=N/A-ESI-QFT
FILENAME=library_mgf.mgf
SEQ=*..*
IONMODE=positive
ORGANISM=MONA
NAME=Emodin [M+H]+
PI=MoNA
DATACOLLECTOR=MoNA:VF-NPL-QEHF011224
PUBMED=N/A
SUBMITUSER=mwang87
TAGS=
SPECTRUMID=CCMSLIB00004702287
SCANS=11224
50.309372 0.022046 
50.38245 0.031542 
50.615753 0.020614 
50.845634 0.025704 
51.340977 0.031878 
51.796078 0.029525 
51.903534 0.024212 
52.174789 0.034796 
52.242123 0.027086 
52.762886 0.019962 
53.618919 0.02616 
53.741386 0.027421 
54.489265 0.026111 
55.055031 0.046425 
55.3241 0.017885 
55.470531 0.03183 
57.070621 2.23211 
58.065872 3.659035 
59.198643 0.031496 
59.549984 0.03275 
59.920441 0.023903 
60.045139 0.026471 
60.357655 0.022273 
61.011372 62.553326 
61.166817 0.027129 
62.014793 0.08404 
62.060745 1.191913 
62.472298 0.021859 
63.007153 0.247867 
63.016514 0.018562 
63.0606 0.021021 
64.583038 0.035378 
64.964592 0.025983 
65.655533 0.021992 
66.222038 0.019157 
67.024376 0.031435 
67.054962 0.171824 
68.167053 0.027199 
68.785385 0.026684 
69.07058 0.335202 
69.437782 0.023277 
70.065758 0.462345 
71.049812 0.08692 
71.086197 1.604666 
71.209244 0.022722 
72.081177 0.020502 
72.422607 0.028795 
72.750511 0.026711 
73.800102 0.024413 
77.103355 0.025768 
77.625313 0.025718 
79.021797 0.165539 
79.319916 0.024193 
79.39547 0.019558 
79.769783 0.023796 
79.773933 0.023445 
80.612076 0.022384 
81.070457 0.606734 
81.543472 0.023453 
83.085983 0.190073 
83.620102 0.025252 
85.065224 0.085802 
85.101677 0.793628 
86.096931 1.085851 
86.907784 0.023022 
87.04451 0.347165 
88.07618 0.026 
89.060196 0.762618 
89.58931 0.027527 
93.07032 0.118799 
94.698654 0.028015 
95.085907 0.789469 
96.484413 0.023029 
97.101624 0.063805 
98.975571 0.041898 
100.076103 0.253317 
100.988564 0.033566 
101.003304 0.03568 
101.06031 0.024323 
103.039383 0.223536 
103.075478 0.029559 
104.067322 0.04042 
104.070953 5.724197 
104.883591 0.032744 
104.930649 0.64763 
104.992599 0.221594 
106.980789 0.031501 
107.050415 0.029464 
107.085785 0.219113 
107.392517 0.027506 
107.967087 0.129957 
109.101395 0.571278 
110.071487 0.128509 
110.782883 0.032158 
114.948143 0.035893 
115.039101 0.071354 
116.053101 0.061435 
116.071198 0.02781 
116.948792 0.137184 
118.086319 0.024399 
118.09124 0.021991 
118.181541 0.019452 
119.085518 0.029007 
119.975365 0.99852 
121.065056 0.021981 
121.10125 0.25376 
122.064941 0.023754 
122.941055 6.077203 
123.080811 0.021595 
123.116875 0.260404 
125.325829 0.021669 
129.022186 0.024342 
129.322723 0.031411 
130.049759 0.021544 
131.028091 0.027573 
131.070374 0.029827 
131.085526 0.029359 
131.961426 0.221958 
132.958405 0.142669 
133.085892 0.121537 
133.101028 0.049215 
134.941055 0.183211 
134.958939 0.382739 
134.978592 0.065876 
135.116867 0.094218 
135.949341 0.986088 
135.966415 0.473385 
136.075729 0.117248 
136.552307 0.032108 
136.956573 3.177021 
137.132385 0.359928 
138.043106 0.023269 
139.33223 0.032885 
140.951324 0.360551 
144.553879 0.023582 
145.100708 0.031972 
145.973221 0.023777 
147.07988 0.024149 
147.969147 0.035528 
147.97496 1.682628 
148.971756 10.831859 
149.720886 0.034952 
149.891937 0.026822 
149.971771 0.399328 
150.97226 7.374993 
152.951401 12.206471 
152.969086 0.306305 
152.988754 0.037497 
153.959137 6.203825 
154.946838 0.190182 
154.966995 0.137339 
155.739944 0.022698 
156.076889 0.090456 
156.458527 0.02428 
158.020065 0.024824 
162.951004 0.292739 
163.985336 0.091894 
164.686966 0.024355 
164.951416 8.468775 
164.96785 0.338388 
165.980438 2.106216 
166.967056 0.089548 
166.982269 2.566233 
167.977707 0.083795 
168.006332 0.059215 
168.982697 19.293003 
170.961929 4.897713 
171.063156 0.020775 
171.973328 0.170974 
172.985382 0.035039 
176.94136 0.029555 
176.989044 0.06722 
177.938126 0.31503 
177.963287 0.138734 
178.545288 0.025067 
178.97821 0.496679 
179.015045 0.024889 
179.022186 1.118503 
179.938812 0.346935 
179.959747 0.149562 
179.978485 1.32476 
180.631714 0.021921 
180.961395 0.693555 
181.976089 0.067573 
181.985626 0.455857 
182.962021 14.674074 
182.998566 0.238884 
185.94931 0.552851 
187.220764 0.023045 
187.660217 0.038872 
190.13356 0.021702 
190.966278 0.038285 
191.10527 0.021039 
191.964508 7.773383 
192.961578 34.528427 
193.963745 1.520517 
194.114944 0.024757 
194.96196 48.552605 
194.972702 0.338582 
194.999878 0.061562 
195.363998 0.030236 
195.948685 0.124438 
196.977905 0.130528 
197.012207 0.064398 
197.032806 0.06262 
197.114655 0.468923 
197.948975 0.318773 
199.545639 0.022819 
200.738815 0.02338 
202.56369 0.025955 
209.975098 6.983186 
210.148102 0.024707 
210.185135 0.500123 
210.971985 23.418022 
211.18042 0.393341 
211.973923 1.364943 
212.183334 0.02596 
212.953125 0.026817 
212.972519 100.0 
213.054382 2.281668 
213.802811 0.025921 
214.005966 0.033567 
214.977798 0.023736 
215.023178 0.03799 
215.890656 0.285252 
215.906219 0.672962 
215.919266 0.084688 
218.532623 0.030959 
219.481171 0.023632 
223.968246 0.327602 
223.990616 0.057652 
224.987686 0.703031 
226.216873 0.042833 
226.96669 0.029786 
226.987946 2.78891 
227.070099 1.626307 
228.040665 0.025061 
229.049362 0.710411 
229.085785 0.031096 
230.051743 0.032496 
230.982925 3.10782 
236.551483 0.021652 
241.049622 0.104631 
241.085297 0.701186 
242.056946 0.091737 
243.016876 0.085497 
243.06485 0.064689 
245.080368 0.105552 
252.950058 0.048711 
253.086777 0.080312 
254.057373 0.129493 
254.175049 0.029816 
254.211823 0.038554 
254.247116 0.035254 
255.064957 30.194267 
255.145676 0.025003 
256.072815 1.439316 
257.032013 0.078829 
257.044403 0.22681 
258.052032 2.701876 
269.079865 0.115022 
269.135712 5.21029 
269.1716 0.034434 
269.192017 0.067957 
269.208344 3.70046 
269.223663 0.034552 
269.266754 0.429391 
269.978088 3.154682 
270.051941 1.730693 
270.075531 0.12923 
270.139038 1.4899 
270.16922 0.086691 
270.185211 0.032919 
270.211243 0.785518 
270.242401 0.322097 
270.278839 1.750294 
270.315155 1.837182 
270.957367 1.513654 
270.975433 1.991544 
271.059814 50.180553 
271.095062 0.126176 
271.11441 0.071657 
271.151581 6.215406 
271.169464 0.100862 
271.187469 5.847693 
271.202789 0.219309 
271.273743 0.109171 
271.318512 0.153497 
271.957489 0.995913 
271.974152 0.178355 
272.064301 9.632806 
272.154602 0.533253 
272.188812 0.480126 
272.201874 0.064356 
272.222656 0.041684 
272.239807 0.407399 
272.258148 17.93788 
272.294037 5.10476 
272.311554 0.035836 
272.937317 0.279949 
272.954712 0.49326 
273.075562 60.474159 
273.131195 1.385904 
273.16684 18.706604 
273.26123 0.691384 
283.423065 0.023647 
288.609039 0.024352 
288.967865 0.144581 
289.967194 0.038325 
290.946716 0.216426 
END IONS

