BEGIN IONS
PEPMASS=597.394
CHARGE=1+
COMPOUNDNAME=Astaxanthin
LIBRARYQUALITY=3
SMILES=N/A
INCHIKEY=MQZIGYBFDRPAKN-QISQUURKSA-N
INCHI=InChI=1S/C40H52O4/c1-27(17-13-19-29(3)21-23-33-31(5)37(43)35(41)25-39(33,7)8)15-11-12-16-28(2)18-14-20-30(4)22-24-34-32(6)38(44)36(42)26-40(34,9)10/h11-24,35-36,41-42H,25-26H2,1-10H3/b12-11+,17-13+,18-14+,23-21+,24-22+,27-15+,28-16+,29-19+,30-20+
MSLEVEL=2
SOURCE_INSTRUMENT=N/A-ESI-QFT
FILENAME=library_mgf.mgf
SEQ=*..*
IONMODE=positive
ORGANISM=MONA
NAME=Astaxanthin [M+H]+
PI=MoNA
DATACOLLECTOR=MoNA:VF-NPL-QEHF003104
PUBMED=N/A
SUBMITUSER=mwang87
TAGS=
SPECTRUMID=CCMSLIB00004694167
SCANS=3104
50.370522 0.181909 
50.929955 0.046978 
52.467941 0.015149 
53.039303 0.028498 
53.14608 0.292471 
53.386391 0.013035 
53.394321 0.255362 
54.158661 0.012812 
54.539879 0.25685 
55.018581 0.29129 
55.055004 10.097435 
56.397842 0.012408 
56.448124 0.021729 
56.609917 0.013207 
57.034069 0.293509 
57.070648 9.679339 
57.20509 0.047605 
58.084732 0.01396 
58.371124 0.064954 
58.389194 0.30926 
59.049908 0.148524 
59.184734 0.024932 
59.623055 0.06511 
60.392715 0.028227 
61.449993 0.318014 
61.462906 0.200491 
61.899563 0.257897 
62.982475 0.820883 
64.119957 0.043929 
65.03949 0.61618 
65.593597 0.23632 
66.404503 0.299277 
67.054924 20.269093 
68.088409 0.05317 
68.922546 0.129962 
69.034225 2.155496 
69.070557 10.559624 
69.45118 0.025758 
69.988953 0.042748 
70.065857 0.047583 
70.073891 0.01607 
70.170837 0.043093 
70.266922 0.02429 
70.726173 0.069873 
71.049835 0.449002 
71.086174 1.14783 
71.193367 0.285612 
71.417114 0.043434 
71.519669 0.231433 
72.642418 0.023683 
74.391266 0.289315 
75.377579 0.258504 
77.437469 0.018274 
77.450035 0.043407 
78.163849 0.27707 
78.951454 0.197854 
79.021767 0.024194 
79.054855 13.327096 
80.948418 0.117423 
81.070503 22.037556 
81.596939 0.171257 
81.894035 0.194301 
82.073753 0.956742 
82.552162 0.051695 
82.94548 0.027416 
83.049736 3.363986 
83.052322 0.014371 
83.086143 6.034103 
84.504288 0.02539 
85.065369 3.345283 
85.101562 0.029634 
87.90873 0.263326 
88.648102 0.261388 
88.978668 0.025587 
89.060242 3.268031 
89.49437 0.267956 
89.502945 0.014094 
89.724365 0.294339 
89.754814 0.192761 
90.052383 0.216448 
91.054764 18.131313 
91.057816 1.496751 
91.126465 0.173152 
92.057877 0.361646 
92.687927 0.207286 
93.070358 26.118799 
94.073654 0.28344 
94.485626 0.027712 
95.049583 10.127953 
95.08596 15.318053 
96.089294 0.44882 
96.620003 0.289719 
96.922157 0.059954 
97.065239 5.252623 
97.101585 0.864119 
99.647209 0.113453 
103.979568 0.209589 
104.47448 0.047907 
104.981277 0.068791 
104.992706 0.134084 
105.070229 38.822975 
106.073647 2.219351 
107.049484 0.536944 
107.085854 59.342594 
107.966904 0.044444 
108.089226 3.665816 
109.065132 6.876382 
109.097366 0.254389 
109.101471 40.321327 
109.140167 0.021937 
109.836449 0.023201 
110.077263 0.171063 
110.104828 1.696864 
110.849037 0.014943 
111.041664 0.158991 
111.080727 5.676606 
112.885567 0.019023 
114.581215 0.013414 
115.054153 0.704802 
117.066078 0.118843 
117.070114 10.001134 
119.049446 0.157768 
119.085732 100.0 
120.089119 7.044018 
120.093445 0.808326 
120.813713 0.024885 
121.065018 5.225192 
121.096756 0.245664 
121.101387 22.06208 
121.10598 0.450556 
122.104675 0.91707 
123.043999 0.017269 
123.080582 6.24329 
123.116959 0.70091 
124.250252 0.128615 
124.937019 0.126157 
124.964645 0.014239 
125.096214 8.190622 
127.036606 0.157935 
127.057831 0.125878 
128.062256 1.388124 
129.069962 8.417878 
130.077805 2.17377 
130.462524 0.030179 
131.08049 0.270315 
131.085587 28.392221 
131.75322 0.077736 
132.088562 1.520151 
132.093567 2.283508 
133.06485 13.58722 
133.101166 33.125721 
133.106476 0.439337 
134.072739 1.659404 
134.104477 1.657712 
135.00296 0.082696 
135.080444 17.213238 
135.116852 19.027298 
136.083633 0.767278 
136.120316 0.680578 
137.059586 0.221053 
137.096115 7.026369 
140.068604 0.018425 
141.070007 1.770298 
142.077744 8.349321 
142.938141 0.026734 
143.085571 23.546724 
143.322189 0.074288 
144.093445 7.142854 
144.467361 0.316601 
145.064865 1.034542 
145.101151 40.612038 
146.10437 3.773501 
147.0439 0.187093 
147.080414 6.605975 
147.110382 0.297771 
147.11676 87.44268 
147.142136 0.029362 
148.120087 9.010501 
149.096115 4.653858 
149.132538 0.976952 
150.207626 0.276483 
150.234131 0.263016 
151.02951 0.051891 
151.075989 0.300418 
151.111847 0.889393 
152.44426 0.221135 
153.069733 0.202792 
153.090836 0.782991 
154.078018 0.360814 
155.067886 0.169288 
155.085419 9.319723 
156.093536 9.303608 
157.101196 31.509615 
158.103226 0.421501 
158.109299 6.264259 
158.72171 0.056561 
159.08046 5.580932 
159.116837 26.167402 
160.088348 0.265292 
160.119965 1.093215 
161.095993 5.91869 
161.132401 14.739563 
161.779877 0.279276 
163.075607 0.051568 
163.111801 0.665792 
164.920364 0.619458 
164.927444 0.014541 
165.069931 0.843711 
166.077698 0.276164 
167.055923 0.01753 
167.085602 3.687681 
167.965393 0.209165 
168.093552 1.730488 
169.101181 17.069958 
170.108948 5.718497 
171.062775 0.225541 
171.080185 1.96324 
171.116821 21.162159 
171.538986 0.221029 
172.088379 0.555702 
172.125198 1.169171 
173.096146 5.171045 
173.132507 28.896448 
174.135513 2.18088 
175.074921 0.582374 
175.111664 2.047309 
175.1483 1.383171 
177.126923 0.221708 
177.825119 0.052576 
179.085587 4.247758 
180.09317 1.262657 
180.894363 0.073051 
180.908081 0.015487 
181.101135 10.289672 
182.108963 5.876582 
183.080505 0.014346 
183.116913 14.027492 
184.124924 1.300019 
184.843506 0.015012 
185.095901 2.340303 
185.132538 11.613883 
186.104034 4.176884 
186.137085 0.235163 
187.111649 2.206558 
187.14827 2.641308 
189.12735 3.882809 
193.101379 6.209419 
193.817322 0.27774 
194.109238 5.05732 
195.116852 16.494057 
196.124527 5.898573 
197.096115 1.901738 
197.132614 15.700161 
198.104355 0.422606 
198.136353 0.740486 
199.094757 0.071601 
199.111526 2.336178 
199.147995 3.168965 
200.118546 0.236427 
201.127441 7.448594 
201.163574 0.394455 
201.186691 0.262805 
203.143036 0.31833 
206.108917 1.904986 
207.116821 8.52068 
207.86824 0.234912 
208.124268 2.178786 
208.254196 0.208183 
209.132553 12.144749 
210.103989 0.353747 
210.139771 1.338241 
211.111771 2.687118 
211.148041 6.163479 
212.151535 0.125248 
212.77063 1.357472 
212.783157 14.018445 
212.790573 4.153453 
213.12709 1.982923 
213.163681 0.839091 
215.142883 1.699177 
217.08075 0.05015 
219.116592 2.066219 
220.124207 1.990933 
221.132339 6.938333 
222.140152 1.532074 
222.580322 0.014578 
223.111099 1.031843 
223.148041 5.202201 
224.156158 0.471515 
225.042999 0.052898 
225.127136 2.700161 
225.163589 3.021957 
227.143768 0.253121 
231.116806 0.740421 
232.0923 0.154216 
232.125107 0.285118 
232.617844 0.027458 
233.080627 0.017431 
233.132339 2.838944 
234.140305 0.53165 
235.14801 3.248904 
235.417603 0.03126 
235.769409 0.053235 
236.154556 0.11789 
237.12764 0.505705 
237.163788 2.284198 
239.032486 0.067275 
239.143143 0.158685 
239.179977 1.090167 
243.119263 0.387728 
244.125549 0.31606 
245.131821 1.581675 
246.139511 1.469609 
247.147568 2.53562 
249.16394 1.503775 
251.142838 0.020675 
251.179108 0.67353 
253.121307 0.226739 
253.158463 0.367084 
257.132416 0.018259 
259.115204 0.056623 
259.147736 0.563859 
261.163086 1.411516 
263.178528 0.37882 
265.159302 0.018605 
268.559509 0.078976 
271.149414 0.151382 
273.164154 0.492944 
275.178833 1.147209 
275.900879 0.017981 
279.173798 0.212662 
287.178253 0.211944 
297.435303 0.028116 
299.061676 0.069738 
300.577362 0.061005 
303.140472 0.015732 
304.115051 0.312432 
306.919525 0.031657 
313.476379 0.051923 
317.184418 0.030913 
320.742645 0.131323 
332.176331 0.018653 
344.849152 0.026514 
349.214966 0.288087 
350.06546 0.05698 
378.331543 0.02378 
380.092163 0.268275 
385.355316 0.126018 
386.416168 0.01589 
387.188202 0.054834 
401.167236 0.254839 
406.844574 0.055168 
413.46994 0.288974 
419.177429 1.69564 
426.677185 0.263592 
437.187378 0.149692 
447.347015 0.050458 
448.119934 0.282812 
461.169495 0.091984 
477.218201 0.088752 
479.179535 0.030378 
482.21991 0.104569 
495.752411 0.204024 
502.42215 0.323892 
503.8927 0.251849 
509.272186 0.639653 
510.275757 0.331632 
535.250366 0.06653 
595.382751 0.852321 
596.385864 2.039119 
597.347961 0.022434 
597.389099 0.117487 
599.325989 0.17516 
599.448975 0.21347 
599.963745 0.304605 
END IONS

