BEGIN IONS
PEPMASS=528.187
CHARGE=1+
COMPOUNDNAME=Massbank: Daunorubicin
LIBRARYQUALITY=3
SMILES=c(=O)(c12)c(c5O[H])c(c(O[H])c(c35)C(C(C(C3(OC([H])(C([H])([H])4)OC([H])(C([H])(O[H])C([H])(N([H])[H])4)C([H])([H])[H])[H])([H])[H])(O[H])C(=O)C([H])([H])[H])([H])[H])c(c1c(c(c(c2OC([H])([H])[H])[H])[H])[H])=O
INCHIKEY=STQGQHZAVUOBTE-UHFFFAOYSA-N
INCHI=1S/C27H29NO10/c1-10-22(30)14(28)7-17(37-10)38-16-9-27(35,11(2)29)8-13-19(16)26(34)21-20(24(13)32)23(31)12-5-4-6-15(36-3)18(12)25(21)33/h4-6,10,14,16-17,22,30,32,34-35H,7-9,28H2,1-3H3
MSLEVEL=2
SOURCE_INSTRUMENT=ESI-LC-ESI-QTOF
FILENAME=Massbank_ESI_positive_8_1_2014_peaks.mgf
SEQ=*..*
IONMODE=Positive
ORGANISM=MASSBANK
NAME=Massbank: Daunorubicin [M+H]+
PI=Putative Massbank Match
DATACOLLECTOR=Massbank
PUBMED=N/A
SUBMITUSER=mwang87
TAGS=
SPECTRUMID=CCMSLIB00000206090
SCANS=1350
58.0655 140.822 
60.0447 105.811 
69.0337 185.684 
71.0505 247.838 
72.0453 504.394 
86.0614 1503.898 
95.0506 160.454 
105.0343 123.175 
113.0614 343.94 
121.0655 626.152 
130.0869 167.328 
133.0289 161.021 
135.045 813.607 
157.0285 110.773 
185.0226 117.222 
237.0896 118.71 
247.0745 370.234 
262.0609 137.137 
265.0837 111.694 
275.0686 392.275 
277.0793 137.633 
278.0562 260.454 
289.0514 233.735 
290.0563 195.322 
293.0789 382.353 
303.0644 383.983 
305.0468 150.744 
306.0502 10000.0 
321.074 3219.702 
333.037 137.137 
END IONS

