BEGIN IONS
PEPMASS=452.111
CHARGE=1+
COMPOUNDNAME=NOSCAPINE
LIBRARYQUALITY=3
SMILES=N/A
INCHIKEY=AKNNEGZIBPJZJG-MSOLQXFVSA-N
INCHI=InChI=1S/C22H23NO7/c1-23-8-7-11-9-14-20(29-10-28-14)21(27-4)15(11)17(23)18-12-5-6-13(25-2)19(26-3)16(12)22(24)30-18/h5-6,9,17-18H,7-8,10H2,1-4H3/t17-,18+/m1/s1
MSLEVEL=2
SOURCE_INSTRUMENT=N/A-ESI-QFT
FILENAME=library_mgf.mgf
SEQ=*..*
IONMODE=positive
ORGANISM=MONA
NAME=NOSCAPINE [M+K]+
PI=MoNA
DATACOLLECTOR=MoNA:VF-NPL-QEHF002757
PUBMED=N/A
SUBMITUSER=mwang87
TAGS=
SPECTRUMID=CCMSLIB00004693820
SCANS=2757
50.860744 0.003823 
52.243305 0.097152 
52.347118 0.029473 
52.589348 0.045083 
53.428989 0.02592 
53.5005 0.083174 
53.852299 0.033411 
54.28524 0.094315 
54.316452 0.089074 
54.869965 0.056238 
54.985088 0.003971 
55.018597 0.010575 
55.055008 0.220273 
55.297741 0.09342 
55.658264 0.003972 
56.050266 0.089572 
56.263615 0.062359 
56.96553 0.044182 
57.070629 0.298626 
57.151264 0.058039 
57.220268 0.083956 
57.248375 0.08633 
57.468105 0.028534 
57.913727 0.004009 
58.065891 0.057176 
58.463921 0.003848 
58.87928 0.086327 
59.049946 0.005919 
59.514591 0.004354 
60.093857 0.084476 
60.529697 0.100295 
61.011269 0.005348 
61.047485 0.10242 
61.401894 0.090063 
61.624504 0.004491 
61.789715 0.030406 
62.476871 0.036813 
63.881477 0.004345 
64.249939 0.029594 
64.843811 0.057948 
64.867882 0.091918 
65.03936 0.004463 
65.269272 0.091754 
65.564056 0.051979 
65.686783 0.035083 
65.873405 0.004487 
67.054955 0.241487 
67.321602 0.058532 
67.720535 0.003957 
67.867409 0.091234 
68.341171 0.044598 
68.383606 0.055785 
68.948715 0.054591 
69.070549 0.131196 
70.065788 0.021332 
70.119408 0.06394 
70.27533 0.047793 
70.470474 0.046992 
71.04985 0.018488 
71.086159 0.090045 
71.098587 0.054463 
71.253601 0.053731 
71.578644 0.085943 
72.583038 0.003837 
72.763474 0.091536 
73.012978 0.092706 
73.029022 0.003821 
74.460114 0.053507 
74.621475 0.056503 
74.804375 0.005226 
75.858017 0.004009 
76.144409 0.028615 
77.141808 0.086458 
79.054855 0.094819 
81.022751 0.087399 
81.070465 0.224412 
82.065834 0.011391 
83.049789 0.005544 
83.086098 0.088719 
83.261436 0.084628 
83.371208 0.004136 
83.868874 0.108799 
84.081337 0.082502 
84.497421 0.079253 
84.842171 0.081271 
85.101791 0.025343 
87.044762 0.004337 
87.440262 0.106119 
89.060196 0.060377 
89.516335 0.08798 
90.338287 0.055939 
91.054771 0.072382 
91.057716 0.006717 
91.677498 0.003791 
92.415741 0.100301 
93.070343 0.075719 
94.06559 0.021013 
94.291367 0.004351 
95.049637 0.015804 
95.085991 0.209465 
95.208313 0.004094 
95.655823 0.087108 
96.081299 0.004888 
96.089355 0.004535 
96.561165 0.098282 
97.101807 0.010621 
97.801544 0.094281 
98.609184 0.044327 
100.11245 0.066863 
102.091743 0.113982 
103.95134 0.059278 
104.83448 0.095 
105.033745 0.008924 
105.07019 0.048745 
106.06562 0.011751 
107.073174 0.01228 
107.085815 0.033545 
107.098038 0.004652 
107.8619 0.004726 
109.101402 0.048517 
109.931656 0.057296 
110.577446 0.095157 
111.575203 0.06451 
112.103523 0.110031 
112.467155 0.054893 
113.676796 0.090537 
113.687332 0.061455 
113.930603 0.107655 
117.07019 0.010216 
117.908089 0.099654 
118.065674 0.005788 
119.085556 0.013919 
120.0811 0.012083 
120.193298 0.066066 
121.064636 0.109885 
121.088951 0.127127 
121.101379 0.015341 
121.375122 0.060716 
122.060425 0.005589 
122.365044 0.091332 
122.883888 0.090641 
123.206573 0.067812 
123.432007 0.100294 
123.934814 0.103524 
124.828789 0.004874 
125.918594 0.004527 
126.035645 0.053604 
128.777451 0.004832 
129.070084 0.011663 
129.209106 0.055634 
129.810364 0.062077 
130.041214 0.005482 
130.90271 0.063927 
131.049347 0.012861 
131.07312 0.006204 
131.242279 0.036072 
131.604507 0.004303 
132.386963 0.004571 
133.06488 0.005012 
134.09639 0.009922 
135.068481 0.006428 
135.330948 0.101707 
136.076126 0.005871 
136.714569 0.065501 
137.268997 0.004285 
139.014954 0.083327 
139.032425 0.004598 
139.305817 0.004053 
142.232544 0.085891 
145.100983 0.013162 
146.036041 0.007194 
146.556122 0.004905 
147.068008 0.203858 
148.034363 0.095276 
148.075623 0.836112 
149.06041 0.00515 
149.083755 0.009076 
152.818405 0.059944 
153.098404 0.111538 
155.085281 0.020685 
155.099213 0.004431 
155.481583 0.00511 
156.088242 0.004655 
157.366028 0.056764 
158.035995 0.052962 
158.072464 0.004326 
159.067993 0.012248 
159.490723 0.09656 
160.051971 0.014986 
160.075821 0.005053 
160.114029 0.10466 
160.953735 0.004251 
161.06012 0.005601 
162.091156 0.183861 
163.926315 0.105979 
164.785934 0.004975 
173.654984 0.00426 
174.031204 0.076461 
174.61377 0.033998 
175.062851 0.711687 
176.046692 0.529482 
176.070892 0.467978 
176.107056 0.005074 
177.054596 1.062106 
177.078491 0.321613 
177.216599 0.059876 
178.086136 0.004117 
179.069992 0.343007 
179.595123 0.056568 
180.888031 0.01632 
182.154068 0.020805 
185.841492 0.051131 
186.067062 0.016116 
188.046738 1.662611 
188.070511 0.057645 
189.049759 0.005647 
190.049774 0.005758 
190.086014 0.152912 
191.057755 0.008696 
192.101608 0.039201 
193.07341 0.038026 
193.941498 0.004346 
195.806854 0.064715 
198.822983 0.113958 
199.075043 0.00666 
200.083588 0.017683 
201.090988 0.691612 
201.439041 0.061154 
202.093994 0.0203 
203.057693 0.520453 
203.14267 0.004368 
204.065659 1.203755 
204.494247 0.064049 
205.073257 100.0 
206.076614 9.948373 
206.789734 0.005105 
207.079117 0.061221 
209.850388 0.034271 
210.185471 0.149397 
218.081421 0.173265 
218.837204 0.071664 
220.096695 82.47303 
220.277161 0.791218 
221.068069 0.070669 
221.100159 8.813011 
222.102112 0.1401 
222.898422 0.077482 
229.507355 0.068351 
231.479782 0.105314 
231.580536 0.050154 
233.103821 0.006179 
234.554733 0.117955 
235.877151 0.004941 
236.091843 0.136536 
237.200012 0.031551 
240.909424 0.172021 
241.031418 0.090127 
241.697311 0.049068 
242.035004 0.023577 
246.227371 0.09636 
246.663834 0.030165 
253.933868 0.093291 
256.054901 0.021385 
262.119659 0.064457 
266.21402 0.047032 
266.417511 0.068842 
266.622589 0.060053 
270.70639 0.067074 
271.542419 0.059777 
274.635223 0.106239 
274.749176 0.101125 
287.390167 0.005083 
289.660675 0.004558 
301.440552 0.058648 
310.498993 0.004686 
312.185333 0.109529 
312.838654 0.052477 
318.313629 0.095764 
319.836426 0.036708 
327.825348 0.045195 
328.665436 0.104828 
328.833893 0.006026 
331.279816 0.005209 
335.634888 0.031632 
335.941833 0.005266 
336.838257 0.004878 
337.846222 0.015967 
344.828552 0.042222 
355.622009 0.031483 
366.271667 0.099102 
369.83667 0.056371 
378.936676 0.062546 
387.847595 0.017688 
394.947876 0.005264 
399.967255 0.031134 
410.303864 0.11424 
417.280853 0.030763 
426.163116 0.005101 
438.662445 0.110526 
450.238373 0.061588 
457.723755 0.004698 
END IONS

