BEGIN IONS
PEPMASS=308.5
CHARGE=1+
COMPOUNDNAME=Massbank:KO003897 Paromomycin|Zygomycin A1|Catenulin|Monomycin A|Hydroxymycin|Aminosidin
LIBRARYQUALITY=3
SMILES=OCC(O1)C(O)C(O)C(N)C1OC(C(N)4)C(C(O)C(N)C4)OC(O3)C(O)C(C(CO)3)OC([H])(O2)C(N)C(O)C(O)C(CN)2
INCHIKEY=UOZODPSAJZTQNH-UHFFFAOYSA-N
INCHI=1S/C23H45N5O14/c24-2-7-13(32)15(34)10(27)21(37-7)41-19-9(4-30)39-23(17(19)36)42-20-12(31)5(25)1-6(26)18(20)40-22-11(28)16(35)14(33)8(3-29)38-22/h5-23,29-36H,1-4,24-28H2/t5-,6+,7+,8-,9-,10-,11-,12+,13-,14-,15-,16-,17-,18-,19-,20-,21-,22-,23-/m1/s1
MSLEVEL=2
SOURCE_INSTRUMENT=ESI-LC-ESI-QQ
FILENAME=Massbank_ESI_positive_8_1_2014_peaks.mgf
SEQ=*..*
IONMODE=Positive
ORGANISM=MASSBANK
NAME=Massbank:KO003897 Paromomycin|Zygomycin A1|Catenulin|Monomycin A|Hydroxymycin|Aminosidin [M+2H]++
PI=Putative Massbank Match
DATACOLLECTOR=Massbank
PUBMED=N/A
SUBMITUSER=mwang87
TAGS=
SPECTRUMID=CCMSLIB00000220310
SCANS=9689
71.7 14851.5 
79.9 39604.0 
84.3 44554.5 
95.9 44554.5 
101.9 44554.5 
113.8 89109.0 
125.0 430693.5 
126.1 163366.5 
129.2 128713.0 
143.1 148515.0 
144.1 346535.0 
145.1 74257.5 
161.3 2331685.5 
162.1 4465351.0 
163.0 103960.5 
174.9 54455.5 
189.1 74257.5 
190.7 24752.5 
203.4 143564.5 
217.2 39604.0 
241.0 39604.0 
245.6 39604.0 
248.9 24752.5 
249.5 173267.5 
259.4 24752.5 
277.3 173267.5 
289.1 9901.0 
291.4 128713.0 
293.3 435644.0 
295.5 297030.0 
300.8 445545.0 
307.4 59406.0 
309.1 37732711.0 
319.1 59406.0 
324.3 49505.0 
421.3 59406.0 
439.5 297030.0 
455.5 6247531.0 
456.5 3306934.0 
457.4 44554.5 
END IONS

