BEGIN IONS
PEPMASS=525.317
CHARGE=1+
COMPOUNDNAME=(2E,6E,12E)-18-(2,6-dioxopiperidin-4-yl)-9,11-dihydroxy-8-methoxy-10,12,14-trimethyl-15-oxooctadeca-2,6,12-trienoic acid
LIBRARYQUALITY=3
SMILES=N/A
INCHIKEY=YQDJUXPUIRGKNV-MNOLRWOYSA-N
INCHI=InChI=1S/C27H41NO8/c1-17(21(29)11-9-10-20-15-23(30)28-24(31)16-20)14-18(2)26(34)19(3)27(35)22(36-4)12-7-5-6-8-13-25(32)33/h7-8,12-14,17,19-20,22,26-27,34-35H,5-6,9-11,15-16H2,1-4H3,(H,32,33)(H,28,30,31)/b12-7+,13-8+,18-14+
MSLEVEL=2
SOURCE_INSTRUMENT=N/A-ESI-QFT
FILENAME=library_mgf.mgf
SEQ=*..*
IONMODE=positive
ORGANISM=MONA
NAME=(2E,6E,12E)-18-(2,6-dioxopiperidin-4-yl)-9,11-dihydroxy-8-methoxy-10,12,14-trimethyl-15-oxooctadeca-2,6,12-trienoic acid [M+NH4]+
PI=MoNA
DATACOLLECTOR=MoNA:VF-NPL-QEHF001656
PUBMED=N/A
SUBMITUSER=mwang87
TAGS=
SPECTRUMID=CCMSLIB00004692719
SCANS=1656
50.063114 0.196209 
50.133816 0.166687 
50.216339 0.236689 
50.594223 0.151164 
50.686733 0.180926 
50.961388 0.173906 
51.494682 0.198923 
51.614124 0.233818 
51.898643 0.163944 
52.068459 0.235341 
52.216698 0.215289 
52.238968 0.197033 
52.533344 0.127142 
52.54541 0.148756 
53.039364 29.508745 
53.14267 0.167826 
53.984573 0.221628 
54.283802 0.21237 
54.342979 0.185137 
54.461468 0.257816 
54.940262 0.175164 
55.01862 17.668741 
55.053654 0.174525 
55.054993 22.453266 
55.397049 0.263297 
55.544781 0.164216 
55.729397 0.24547 
55.808487 0.18809 
55.929756 0.141126 
55.988655 0.170062 
56.079807 0.242657 
56.128319 0.158438 
56.19907 0.147191 
56.23175 0.143914 
57.034267 4.398853 
57.419296 0.179849 
57.695438 0.158469 
57.997585 0.225628 
58.357906 0.130205 
58.753582 0.163569 
59.493919 0.165941 
59.57785 0.156743 
59.713371 0.170963 
60.028942 0.152828 
60.045139 15.386653 
60.093105 0.175856 
60.72245 0.148986 
61.208969 0.139079 
61.282566 0.161994 
61.530373 0.197782 
61.740307 0.141269 
61.982201 0.19095 
62.417599 0.168628 
62.996635 0.207997 
63.50687 0.205209 
63.550606 0.200286 
63.757561 0.209153 
63.904968 0.135844 
63.935658 0.170589 
64.074791 0.230031 
64.363586 0.187734 
64.679085 0.164443 
64.912086 0.152456 
65.039322 0.403892 
65.154434 0.225555 
65.629791 0.234203 
66.400139 0.154586 
66.764198 0.161914 
66.855095 0.129557 
67.054939 51.035957 
67.137421 0.215742 
67.327232 0.201916 
67.33107 0.243113 
67.351006 0.257232 
67.66243 0.158569 
68.058235 0.185704 
68.064697 0.151203 
68.345009 0.191384 
68.83876 0.224846 
69.034172 6.834355 
69.070564 9.865692 
69.541145 0.118539 
69.698662 0.175491 
70.02005 0.150894 
70.630432 0.165146 
71.04982 1.966045 
72.582993 0.171854 
72.819275 0.125658 
73.203888 0.1773 
73.211266 0.176258 
74.018265 0.201545 
75.585541 0.177031 
75.630775 0.159255 
76.079506 0.283166 
76.536789 0.191596 
76.545815 0.186477 
76.552162 0.213769 
76.613838 0.218946 
77.03923 0.388067 
77.122025 0.205001 
77.240105 0.193772 
77.39167 0.190639 
77.833878 0.198221 
78.320023 0.170956 
78.336067 0.188757 
78.660782 0.245652 
79.054863 44.163746 
79.078629 0.21894 
79.841217 0.155299 
80.278465 0.140931 
80.717026 0.15961 
81.034111 41.686958 
81.070503 39.988094 
81.183182 0.208863 
81.375534 0.179967 
81.421738 0.116173 
81.739441 0.298859 
81.999634 0.166409 
82.421448 0.203152 
83.049629 0.427819 
83.086052 4.690695 
83.542145 0.246989 
83.989395 0.281148 
84.68129 0.149014 
85.065399 0.633463 
86.024536 0.172999 
86.260323 0.176498 
86.320648 0.162543 
87.236847 0.2172 
88.965508 0.229971 
89.431107 0.164836 
89.593529 0.212197 
89.812775 0.211095 
90.103775 0.137367 
90.27018 0.216106 
90.893768 0.167715 
91.054771 57.060215 
91.248405 0.231345 
91.667496 0.201009 
91.674706 0.257225 
92.058128 0.650338 
92.062347 0.698089 
93.070412 83.018646 
94.065605 10.912898 
94.073692 2.217744 
94.539062 0.196664 
95.04966 53.626728 
95.086014 19.369865 
96.052925 0.686679 
96.057457 2.592647 
96.089302 0.196144 
96.215881 0.181463 
97.065277 8.337071 
99.044594 0.269037 
99.13504 0.17084 
99.335503 0.241535 
100.075233 0.224012 
100.648476 0.180682 
101.085121 0.200564 
101.4216 0.238853 
102.24482 0.227556 
102.425476 0.126016 
103.054665 4.721563 
103.162941 0.229935 
103.560379 0.245323 
103.966576 0.18301 
104.085037 0.184954 
104.823486 0.247079 
104.829727 0.167307 
105.033897 8.162928 
105.04509 1.906699 
105.070305 41.036495 
106.073738 0.648957 
106.077965 2.86651 
106.222397 0.1515 
107.049469 8.509495 
107.085922 21.033331 
107.347137 0.2895 
107.706039 0.219926 
108.081215 0.282857 
108.088898 0.165885 
108.205986 0.117862 
109.065155 11.83815 
109.097733 0.23074 
109.101501 37.606873 
110.060341 3.410753 
110.10495 0.476738 
110.89241 0.143936 
111.080711 1.292228 
111.20266 0.173855 
111.276466 0.151115 
111.384277 0.179832 
112.039574 0.435518 
112.133408 0.158563 
112.678345 0.213815 
113.663933 0.196715 
115.387199 0.160803 
115.653427 0.25479 
117.070099 5.671565 
117.382385 0.224882 
117.615517 0.298852 
118.202148 0.190319 
119.049423 0.355764 
119.085785 43.158806 
119.405624 0.179184 
119.887962 0.130605 
120.01609 0.232928 
120.089096 0.892284 
120.408722 0.270886 
121.028641 6.977794 
121.06501 13.839365 
121.101395 4.667683 
121.203484 0.179037 
121.802467 0.166397 
122.072792 4.494099 
123.044266 66.066635 
123.080521 1.375052 
124.047638 0.724286 
124.950623 0.188779 
126.901848 0.221946 
127.711838 0.114953 
127.936874 0.218955 
128.062164 1.214476 
129.070007 23.136898 
129.334335 0.206507 
130.072678 0.210894 
130.077881 0.184818 
130.198959 0.246424 
130.341797 0.137081 
130.35997 0.184466 
130.850632 0.188303 
131.055023 0.181372 
131.085556 19.570356 
131.161591 0.17352 
132.08902 0.126069 
132.685898 0.236313 
133.059921 0.146231 
133.064835 26.591988 
133.101181 29.25042 
134.072754 1.355445 
134.104034 0.171477 
134.1091 1.72506 
135.08046 19.155815 
136.076126 0.834946 
136.35379 0.130919 
137.059692 10.242142 
138.054916 2.409083 
139.575226 0.172618 
139.638153 0.178064 
140.070541 65.163773 
140.146393 0.148523 
141.054581 79.515152 
142.057877 1.174045 
142.077774 2.105632 
143.085617 14.34954 
143.466583 0.180804 
143.554138 0.244262 
144.093369 11.173419 
145.064743 1.443529 
145.101166 21.780117 
146.072601 2.947582 
146.173538 0.210625 
147.080414 100.0 
147.116852 2.045684 
148.083344 1.618291 
148.089096 0.156521 
148.183685 0.168601 
149.096115 4.120057 
150.282227 0.187034 
151.074554 0.258189 
153.866547 0.190626 
154.086121 4.077609 
155.070602 0.24736 
155.085419 3.233882 
156.093628 0.526604 
157.101257 8.239885 
157.542831 0.274767 
158.072342 0.258105 
158.108688 0.256814 
158.449188 0.187887 
159.080566 1.388909 
159.116745 8.522228 
159.467972 0.184995 
160.294769 0.17404 
160.815323 0.183788 
161.096069 63.274158 
162.098129 0.199208 
162.104385 4.293492 
164.070618 1.517705 
165.054581 0.206994 
166.076035 0.167718 
167.085312 0.219702 
167.662018 0.274365 
167.889267 0.168204 
168.093246 0.999849 
168.331558 0.171654 
168.65593 0.185601 
168.689743 0.222185 
169.101196 1.843917 
169.608475 0.142425 
170.19371 0.198354 
170.398956 0.22613 
171.080139 0.263155 
171.116852 3.204662 
173.096115 1.562644 
173.132782 1.670355 
175.111664 2.4677 
178.627792 0.182105 
181.100708 0.171238 
181.621948 0.168037 
182.107986 0.23358 
183.116882 1.36747 
185.132751 0.28612 
185.204315 0.167376 
187.147903 0.458077 
192.881989 0.284754 
193.100647 0.178638 
194.912598 0.250168 
195.117157 0.19862 
195.214249 0.306431 
196.087372 0.189912 
197.132599 0.833119 
197.821915 0.179182 
199.111267 0.418891 
199.84491 0.189326 
200.078232 0.20879 
202.410522 0.187075 
202.706726 0.273711 
207.116882 0.323612 
207.262268 0.2554 
207.951828 0.16992 
211.534653 0.246388 
213.127289 0.234994 
213.503784 0.140133 
215.1436 0.193733 
217.366196 0.172982 
218.859009 0.246056 
218.909119 0.165925 
220.347687 3.097959 
220.358978 0.824658 
223.494019 0.194862 
223.507202 0.17098 
223.934006 0.249085 
224.222549 0.184192 
225.756073 0.246764 
227.656113 0.243335 
229.642593 0.174298 
230.643631 0.198514 
234.22049 0.226043 
236.916733 0.253845 
240.220322 0.275668 
242.116989 0.17904 
242.914688 0.175173 
243.704544 0.154131 
244.095322 0.183545 
247.060471 0.146262 
247.132782 17.646053 
249.040985 0.186991 
249.611084 0.176638 
249.624237 0.187511 
251.268509 0.182091 
253.632065 0.157487 
254.126572 0.18795 
255.660629 0.166383 
255.700165 0.260064 
256.208466 0.229721 
256.677094 0.14904 
259.229156 0.223429 
262.144226 0.301991 
264.788879 0.259851 
265.624634 0.241148 
270.838745 0.367415 
272.108948 0.116432 
273.160583 0.295094 
274.033203 0.176748 
278.149384 0.204029 
278.189087 0.136274 
282.147644 0.246991 
284.092255 0.170658 
288.685516 0.247269 
292.769592 0.26992 
302.13266 0.235374 
308.988739 0.166608 
309.687103 0.188326 
311.552063 0.208857 
313.571014 0.184275 
314.646393 0.233694 
315.968719 0.185547 
318.447876 0.164273 
320.021667 0.182399 
320.680786 0.271221 
324.137268 0.139183 
324.535309 0.156206 
329.430939 0.19519 
330.090363 0.274032 
332.327057 0.273172 
336.181061 0.219525 
338.465149 0.294781 
341.455414 0.189024 
344.799561 0.169826 
347.962616 0.216608 
350.15097 0.287571 
353.914062 0.272735 
354.432007 0.262262 
364.790741 0.253173 
366.396332 0.185364 
378.825897 0.187021 
381.985107 0.312917 
387.286041 0.187372 
389.343964 0.167899 
391.319702 0.228965 
396.672119 0.206374 
402.065155 0.275606 
404.503357 0.231254 
420.519043 0.183049 
420.735718 0.186155 
421.630829 0.180171 
422.746643 0.199835 
423.006439 0.207915 
423.708313 0.300117 
455.252167 0.265567 
457.402191 0.272262 
462.888458 0.26926 
467.194641 0.295909 
471.432831 0.239455 
472.592896 0.188467 
480.819672 0.193424 
481.81778 0.168837 
486.518829 0.245507 
495.871216 0.195386 
502.846069 0.201093 
505.805084 0.206275 
521.650696 0.225494 
522.11969 0.121825 
527.809082 0.172262 
529.153564 0.224899 
531.59259 0.159831 
534.384644 0.240398 
548.848267 0.258763 
551.182617 0.238375 
END IONS

