BEGIN IONS
PEPMASS=335.135
CHARGE=1+
COMPOUNDNAME=MITOMYCIN C
LIBRARYQUALITY=3
SMILES=N/A
INCHIKEY=NWIBSHFKIJFRCO-WUDYKRTCSA-N
INCHI=InChI=1S/C15H18N4O5/c1-5-9(16)12(21)8-6(4-24-14(17)22)15(23-2)13-7(18-13)3-19(15)10(8)11(5)20/h6-7,13,18H,3-4,16H2,1-2H3,(H2,17,22)/t6-,7+,13+,15-/m1/s1
MSLEVEL=2
SOURCE_INSTRUMENT=N/A-ESI-QFT
FILENAME=library_mgf.mgf
SEQ=*..*
IONMODE=positive
ORGANISM=MONA
NAME=MITOMYCIN C [M+H]+
PI=MoNA
DATACOLLECTOR=MoNA:VF-NPL-QEHF027725
PUBMED=N/A
SUBMITUSER=mwang87
TAGS=
SPECTRUMID=CCMSLIB00004721306
SCANS=27725
50.656853 0.008152 
51.01395 0.008312 
51.563343 0.00864 
51.902111 0.014388 
52.653595 0.009756 
52.736473 0.010179 
52.761311 0.009119 
52.960644 0.010781 
52.962353 0.010019 
53.13031 0.013602 
53.245235 0.012082 
53.418976 0.009371 
53.909832 0.009729 
54.232998 0.008035 
54.289955 0.010152 
54.572571 0.007422 
54.650764 0.007517 
54.967514 0.00903 
54.993141 0.007905 
56.049702 0.021802 
56.131374 0.010703 
57.239166 0.00802 
57.509174 0.011116 
57.917377 0.007739 
58.380142 0.010738 
58.665844 0.009083 
59.019489 0.009351 
59.083649 0.010683 
59.44714 0.009404 
59.851582 0.010448 
60.044628 0.054197 
60.103516 0.009211 
60.537373 0.008451 
62.609665 0.006809 
62.950291 0.016685 
63.111485 0.007606 
64.275146 0.009971 
64.619614 0.006548 
66.8759 0.009384 
66.877975 0.009929 
67.079185 0.008701 
67.374664 0.009134 
68.104088 0.007933 
68.457581 0.009774 
68.472832 0.011927 
68.646255 0.013531 
69.054543 0.008126 
69.331375 0.009445 
71.650215 0.00991 
71.917648 0.009462 
72.866127 0.014284 
73.322533 0.010108 
73.357254 0.00975 
74.280388 0.006513 
74.477051 0.013108 
74.586121 0.009922 
74.824081 0.010466 
75.604706 0.007455 
75.661827 0.010884 
76.042213 0.012935 
77.319016 0.010801 
78.121063 0.00842 
79.074577 0.008926 
79.103821 0.010309 
80.058922 0.008053 
80.585808 0.009715 
81.518723 0.009599 
82.480713 0.009855 
84.097084 0.01127 
84.495895 0.011871 
85.938667 0.014513 
86.06028 0.009273 
87.061676 0.016327 
87.738251 0.008851 
88.432053 0.006395 
89.770035 0.011631 
90.348717 0.014831 
90.573143 0.013842 
90.579582 0.017044 
90.588531 0.009671 
90.771278 0.009713 
90.869705 0.010475 
91.048897 0.009147 
91.185112 0.008612 
92.92057 0.0102 
93.150253 0.009648 
94.625763 0.009906 
94.845589 0.010642 
96.359108 0.00898 
97.089104 0.008791 
97.174957 0.013318 
99.347733 0.011121 
100.150063 0.009742 
100.299408 0.009819 
102.061508 0.010515 
102.42942 0.010601 
103.554146 0.014365 
103.583969 0.009492 
104.129112 0.013265 
106.139023 0.011752 
106.830582 0.007912 
107.135429 0.014394 
108.321022 0.007577 
108.995567 0.006565 
109.012589 0.008028 
110.060013 0.862283 
111.983757 0.013292 
112.113945 0.012898 
112.258614 0.008717 
112.348137 0.013427 
112.816429 0.007666 
113.745163 0.010538 
114.915565 0.015497 
115.765495 0.014585 
116.618423 0.012598 
116.777237 0.010964 
117.84407 0.007913 
120.638329 0.01134 
121.161682 0.011056 
121.797035 0.013789 
125.689865 0.011263 
126.501266 0.007738 
127.655403 0.011248 
127.677155 0.012569 
127.695793 0.010742 
128.10173 0.014704 
128.406845 0.010502 
128.557892 0.00896 
130.416031 0.012118 
131.060394 0.173377 
132.044205 0.027632 
132.068268 1.022511 
132.725357 0.010475 
133.070923 0.007596 
133.075958 0.390449 
134.060287 0.013559 
135.055237 0.015201 
135.318497 0.006471 
136.07579 0.01138 
136.502533 0.007964 
136.832718 0.014554 
137.070969 0.613303 
138.344147 0.010725 
139.269653 0.009806 
139.950546 0.011815 
142.907181 0.008692 
144.08075 0.09891 
144.656189 0.011059 
145.075867 0.090575 
145.681152 0.008306 
146.217148 0.010596 
147.055206 0.01837 
149.060104 0.013104 
149.070953 0.364919 
149.399811 0.012278 
149.538925 0.009534 
156.068024 0.116325 
157.075989 0.031107 
159.055359 2.472706 
159.091751 0.127458 
160.058563 0.106155 
161.070938 0.225989 
161.338364 0.011613 
161.384232 0.010922 
161.543076 0.008165 
161.756912 0.00977 
162.561035 0.013731 
165.065811 0.012195 
165.781754 0.010103 
166.491318 0.011318 
169.076065 1.194357 
170.083908 0.018942 
171.078949 0.085536 
171.091721 2.00975 
172.094879 0.03645 
172.19426 0.010288 
173.070908 0.372018 
175.086655 0.336211 
176.07077 0.051183 
176.667923 0.008109 
177.065826 0.213401 
179.077408 0.010757 
179.790207 0.008802 
183.764954 0.012866 
184.022385 0.01047 
185.07103 0.392853 
185.094391 0.011113 
186.066132 0.173999 
186.091095 0.014748 
186.10257 0.432438 
187.075089 0.008245 
187.0867 1.046488 
188.058151 0.008049 
189.065842 0.356159 
191.081421 0.015093 
191.652679 0.015517 
196.087234 0.022506 
196.245102 0.010076 
197.07103 2.166057 
198.078217 0.196729 
198.102524 0.813234 
198.789291 0.009818 
199.074234 0.662928 
199.086594 2.090349 
199.104782 0.016458 
200.058121 0.010899 
200.071121 0.012681 
200.080368 0.023051 
200.090851 0.019899 
200.948059 0.0115 
201.065887 0.185908 
201.101685 0.008697 
202.073715 1.787218 
203.081741 1.4077 
204.065414 0.010927 
204.089645 0.019228 
204.484207 0.008779 
205.596909 0.015141 
206.068512 0.066184 
206.70314 0.008085 
212.081985 0.014065 
213.065704 0.867291 
213.089493 0.422368 
214.073395 0.443021 
214.097458 5.70548 
214.76442 0.511632 
215.081528 8.025804 
215.100586 0.695302 
215.45401 0.010928 
215.624588 0.014966 
216.074951 0.050377 
216.085175 0.840805 
216.113068 0.050575 
217.060791 0.078159 
217.097198 0.828835 
218.415863 0.010909 
219.076263 0.526648 
221.092026 0.010377 
223.341858 0.012692 
224.081894 0.037913 
224.762192 0.012387 
225.066086 1.224025 
226.072708 0.220363 
226.096695 0.008433 
227.069 0.507602 
227.081436 1.811651 
227.430099 0.014813 
227.494171 0.010694 
228.085709 0.134768 
229.084717 1.265818 
229.095322 0.012785 
230.068558 0.288393 
230.091904 0.340553 
231.076324 1.101039 
231.099991 0.069156 
232.083344 0.120595 
232.421631 0.009222 
235.906143 0.011619 
236.686996 0.010013 
240.076645 0.872632 
241.084183 1.182977 
242.070038 0.044668 
242.0923 100.0 
242.844238 0.016604 
243.095993 13.158048 
243.945358 0.011258 
244.108902 2.618756 
245.092041 1.057437 
245.111465 0.181452 
246.095306 0.028084 
257.079132 0.546203 
257.092407 0.318925 
258.083374 0.312542 
258.930359 0.011048 
259.095245 0.254693 
261.170929 0.010686 
261.432983 0.010425 
271.579102 0.017344 
271.907684 0.009512 
274.118378 0.4926 
275.122437 0.017954 
278.152954 0.013185 
286.583496 0.012913 
291.180969 0.010495 
292.690521 0.009862 
295.000427 0.012769 
299.978516 0.013763 
302.38916 0.011379 
304.17868 0.07317 
307.275482 0.010267 
309.476288 0.009633 
318.646729 0.010137 
319.086823 0.010608 
322.857635 0.007702 
327.876251 0.007249 
328.950714 0.013878 
340.192627 0.010589 
350.224396 0.011435 
354.639801 0.008519 
END IONS

