BEGIN IONS
PEPMASS=288.087
CHARGE=1+
COMPOUNDNAME=Emodin
LIBRARYQUALITY=3
SMILES=N/A
INCHIKEY=RHMXXJGYXNZAPX-UHFFFAOYSA-N
INCHI=InChI=1S/C15H10O5/c1-6-2-8-12(10(17)3-6)15(20)13-9(14(8)19)4-7(16)5-11(13)18/h2-5,16-18H,1H3
MSLEVEL=2
SOURCE_INSTRUMENT=N/A-ESI-QFT
FILENAME=library_mgf.mgf
SEQ=*..*
IONMODE=positive
ORGANISM=MONA
NAME=Emodin [M+NH4]+
PI=MoNA
DATACOLLECTOR=MoNA:VF-NPL-QEHF011223
PUBMED=N/A
SUBMITUSER=mwang87
TAGS=
SPECTRUMID=CCMSLIB00004702286
SCANS=11223
50.783024 0.076294 
51.270065 0.100031 
51.579433 0.100462 
51.796097 0.104674 
52.035255 0.069652 
52.702236 0.108017 
52.824696 0.083965 
53.002964 3.785462 
53.2342 0.088627 
53.689774 0.092316 
54.378006 0.068403 
54.462433 0.100647 
54.612103 0.077442 
54.904816 0.074505 
55.01281 0.068021 
55.0186 7.960306 
55.054974 7.210594 
56.050209 0.525742 
56.965546 6.062859 
57.021793 0.106629 
57.070625 91.603806 
57.072308 1.079631 
57.39621 0.101796 
57.764961 0.071966 
58.065865 25.157055 
58.067394 0.184041 
58.073967 2.857031 
59.061195 0.071034 
59.99099 0.939078 
60.045078 0.594482 
60.056477 0.115339 
60.116684 0.104724 
60.13448 0.115434 
60.167542 0.097048 
60.226002 0.107096 
60.382885 0.078956 
61.011433 0.890592 
61.125755 0.079374 
61.343815 0.134971 
61.885387 0.102869 
62.060749 1.69957 
62.447575 0.105201 
62.982491 0.248294 
63.567986 0.102577 
64.5858 0.113613 
65.039223 0.207959 
65.157494 0.08044 
66.076721 0.075073 
66.285675 0.085454 
66.400986 0.113119 
66.553467 0.111577 
66.661156 0.079512 
66.670715 0.069888 
67.054932 4.350834 
67.886986 0.090559 
68.050163 1.563149 
68.701424 0.07284 
68.997803 0.722935 
69.034187 0.226179 
69.070541 4.565516 
69.220558 0.100641 
69.961723 0.086119 
70.065773 100.0 
70.778847 0.065257 
70.781662 0.071289 
71.049858 0.264817 
71.069138 2.612511 
71.086182 27.229078 
72.045067 6.487272 
72.081413 1.812535 
72.089447 0.442842 
72.129738 0.094505 
73.001305 0.077925 
73.029045 0.13362 
73.322815 0.071601 
74.06041 0.129978 
74.097069 0.452571 
74.931335 0.093183 
77.105881 0.089315 
79.02179 1.635301 
79.054832 1.977112 
79.993263 0.121783 
80.050308 0.115633 
80.462769 0.072969 
81.070435 3.745872 
81.490051 0.106469 
83.061012 0.121713 
83.086189 0.298197 
84.045074 0.255197 
84.081375 0.105868 
85.03997 0.098267 
85.065414 0.123213 
85.101669 6.804852 
86.060539 1.259499 
86.096931 4.27403 
86.441643 0.095486 
87.273262 0.103519 
88.022003 5.256594 
88.07618 83.508965 
89.079544 2.097868 
91.054695 6.100566 
92.026291 0.107406 
92.057983 0.085692 
93.070343 1.856872 
93.407349 0.119256 
93.883972 0.11395 
95.013199 1.292545 
95.049538 0.611269 
95.085892 3.039508 
96.995598 0.088547 
97.570251 0.081325 
97.774384 0.11257 
97.855476 0.112742 
98.975739 16.47624 
99.978928 0.106108 
100.056213 0.107228 
100.076035 3.286846 
100.292496 0.081031 
100.600517 0.10279 
100.608192 0.109027 
101.950233 6.807901 
102.091667 8.342233 
102.270584 0.101313 
102.882042 0.10666 
103.054749 0.137565 
104.838432 0.118934 
105.033661 0.220373 
105.070198 2.088756 
106.065224 0.163182 
106.082634 0.22167 
106.086563 35.873898 
106.090393 0.093263 
107.085876 0.792185 
107.089684 0.388494 
108.427116 0.087183 
108.504623 0.104538 
109.065186 0.102584 
109.101585 0.393265 
109.985245 0.124458 
110.075897 0.081992 
110.495598 0.126221 
111.008728 0.112491 
111.559685 0.119725 
113.059433 0.122755 
113.664642 0.1107 
115.054474 3.455841 
115.34671 0.079925 
116.052979 1.765535 
116.986122 17.099012 
117.070015 0.981407 
118.086502 0.088169 
119.049301 0.719551 
119.08577 0.513625 
119.262802 0.107521 
119.732857 0.085446 
119.960602 3.48806 
121.028458 0.341916 
121.413994 0.093546 
121.657974 0.10502 
122.941086 0.082161 
126.788521 0.11478 
126.824631 0.10863 
127.054207 0.1095 
128.062164 11.026407 
128.434387 0.103793 
128.884689 0.108038 
129.06514 0.541726 
129.069977 2.251484 
129.210083 0.081184 
130.817398 0.082478 
131.001617 0.093314 
131.04924 1.422865 
131.085541 1.165165 
131.255615 0.080147 
132.08049 0.244477 
133.064789 0.223424 
133.10112 0.520067 
134.412979 0.116644 
134.996445 9.578454 
135.025452 0.122753 
135.043945 3.925492 
135.425369 0.121004 
137.023315 1.123428 
137.059204 0.108085 
137.382874 0.108889 
137.971008 1.577018 
138.184891 0.105539 
139.05394 0.273388 
139.858459 0.109447 
141.069778 2.198774 
141.142288 0.103778 
142.781479 0.089882 
143.049103 1.107113 
143.085449 4.769812 
144.03064 0.083433 
144.057083 0.17949 
144.088455 0.11377 
145.064804 3.371203 
146.096619 0.107405 
147.043991 5.669003 
147.466309 0.080101 
148.024612 0.228939 
149.131729 0.140265 
150.95134 0.102863 
150.968826 0.107364 
151.117325 0.096501 
152.013062 0.073276 
152.06192 1.153153 
152.707977 0.130509 
152.946899 0.092142 
153.006958 0.577933 
153.069962 2.112502 
154.072723 0.091127 
155.0849 0.099941 
156.056549 0.205847 
156.990128 0.084191 
157.064682 5.448991 
159.044022 1.880362 
159.080338 2.856663 
160.075516 0.385993 
160.112488 0.105649 
161.059402 0.347425 
162.510727 0.113018 
163.039154 0.093865 
165.069519 0.270639 
167.049393 0.092275 
167.085602 0.103371 
168.056946 0.726471 
168.990799 0.864469 
169.059509 0.394005 
169.065292 0.267873 
169.450775 0.079397 
170.957382 0.76819 
171.043976 4.34591 
171.080429 4.116116 
172.204117 0.119244 
172.395737 0.110688 
173.059692 5.126726 
174.063065 0.774301 
175.03894 22.771778 
176.042267 1.262532 
177.160355 0.114374 
181.064667 2.213677 
181.143723 0.075288 
182.072952 0.124533 
183.080399 0.155481 
184.05188 4.837371 
185.05957 3.219762 
186.062698 0.222947 
186.935959 0.09764 
187.038879 2.180347 
187.075363 2.98766 
188.078262 0.137619 
189.018967 0.102319 
189.05455 2.278959 
190.107208 0.984203 
190.159256 0.759125 
195.079742 0.089936 
195.205872 0.103199 
196.05188 0.391862 
197.059494 1.908936 
197.08667 0.110254 
198.067093 0.892368 
199.038971 6.26682 
199.064438 0.398886 
199.075195 1.629361 
200.044037 0.246114 
201.054504 10.187851 
201.079544 0.081275 
202.059143 1.830646 
203.033829 0.622904 
203.936951 0.093899 
207.680664 0.098632 
209.060059 0.10207 
209.892395 0.095041 
210.067123 0.151374 
211.075043 2.009332 
212.046768 1.437587 
213.054535 9.206312 
214.058609 2.271205 
215.033722 3.678671 
215.066269 1.112185 
216.068329 0.172208 
216.17392 0.207423 
217.074692 0.374871 
217.085464 0.15123 
219.881668 0.965625 
219.888718 0.586681 
220.903458 0.117908 
222.898727 0.510709 
223.038834 1.658587 
223.075806 0.128002 
224.045578 0.155234 
225.054092 2.125744 
226.061783 2.723798 
226.21611 0.118561 
227.070053 4.122473 
228.039093 0.168781 
229.0495 14.719466 
229.061005 0.111457 
229.074921 0.263144 
230.05275 5.572569 
230.190353 0.13457 
233.382111 0.079912 
234.154816 0.0807 
234.802963 0.120237 
236.363968 0.119987 
237.054138 0.122102 
238.913864 0.316291 
239.070145 2.372128 
239.465057 0.117561 
240.041595 2.064676 
240.07489 0.124035 
240.908829 3.220247 
241.049347 9.635991 
241.085709 1.491075 
242.055557 5.606937 
243.061096 7.147921 
244.062775 0.949578 
245.04451 0.900754 
245.066422 0.09504 
247.085419 0.2072 
248.663528 0.123978 
248.802353 0.116122 
251.03334 1.246064 
251.069534 0.115051 
252.076813 0.091366 
253.049133 0.268025 
253.950607 0.108734 
254.05603 3.553458 
255.065002 4.726075 
256.034821 0.455417 
256.071686 2.195953 
257.044342 13.043081 
257.078003 0.119936 
258.050598 2.849814 
264.368439 0.086579 
269.044556 0.347268 
269.081116 0.66841 
270.050873 1.647676 
270.088043 0.267901 
270.974609 0.362916 
271.056671 14.932139 
272.057434 3.055141 
272.068207 2.629055 
273.039032 0.329558 
273.281921 0.103509 
274.951569 0.170439 
276.931671 1.190153 
276.947845 0.119642 
277.631348 0.113141 
279.438629 0.114225 
280.06842 0.09003 
286.078613 0.189979 
286.252319 0.483532 
287.054779 2.378778 
288.268372 0.147247 
288.289337 0.6149 
289.29364 0.140266 
297.600494 0.090376 
300.181152 0.085361 
308.256836 0.113214 
END IONS

