BEGIN IONS
PEPMASS=345.134
CHARGE=1+
COMPOUNDNAME=gibberellic acid
LIBRARYQUALITY=3
SMILES=N/A
INCHIKEY=IXORZMNAPKEEDV-OBDJNFEBSA-N
INCHI=InChI=1S/C19H22O6/c1-9-7-17-8-18(9,24)5-3-10(17)19-6-4-11(20)16(2,15(23)25-19)13(19)12(17)14(21)22/h4,6,10-13,20,24H,1,3,5,7-8H2,2H3,(H,21,22)/t10-,11+,12-,13-,16-,17+,18+,19-/m1/s1
MSLEVEL=2
SOURCE_INSTRUMENT=N/A-ESI-QTOF
FILENAME=library_mgf.mgf
SEQ=*..*
IONMODE=negative
ORGANISM=MONA
NAME=gibberellic acid [M-H]-
PI=MoNA
DATACOLLECTOR=MoNA:VF-NPL-QTOF001989
PUBMED=N/A
SUBMITUSER=mwang87
TAGS=
SPECTRUMID=CCMSLIB00004719762
SCANS=1986
41.002399 0.302656 
43.018902 5.261805 
57.034 0.546992 
71.050201 22.086296 
71.124199 0.598634 
73.029198 4.372097 
83.049896 13.561622 
83.128899 0.264817 
105.067497 0.360335 
105.073502 0.291163 
119.086098 0.458078 
143.085907 100.0 
143.190002 2.230066 
143.219604 0.358761 
143.228806 0.656608 
143.237198 0.715059 
143.248093 0.350674 
143.260406 0.452044 
143.292801 0.710666 
143.306198 0.410849 
143.320099 0.354907 
143.343994 0.40283 
143.359604 0.260766 
143.404495 0.241189 
143.4142 0.302631 
143.463104 0.220627 
144.089493 1.689404 
145.099503 0.249291 
155.086502 0.489416 
159.078995 0.543357 
161.096497 6.085545 
169.101501 0.344854 
171.081604 0.254527 
173.095306 0.856921 
183.078003 0.663404 
183.110901 0.538894 
185.095795 1.119575 
187.074402 0.238046 
193.100998 0.602965 
197.131897 1.468522 
199.070999 0.226751 
199.105896 0.529101 
201.127701 6.572876 
201.248505 0.235225 
205.098999 0.382641 
209.094803 0.53421 
213.127701 4.520439 
215.141296 1.272067 
217.120407 0.226734 
219.118301 0.70233 
221.132507 45.230213 
221.232803 0.449124 
221.260498 1.288607 
221.303604 0.654571 
221.348495 0.464249 
221.409393 0.262994 
221.494705 0.242155 
222.135696 1.302718 
224.116501 0.33683 
227.106506 20.577936 
227.237 0.495769 
227.298004 0.247175 
228.111206 0.470256 
237.126297 0.917797 
237.133408 0.325516 
239.143204 39.923378 
239.277603 0.870704 
239.2939 0.241328 
239.323502 0.556687 
239.345093 0.311673 
239.376907 0.276868 
239.405899 0.327689 
240.143997 0.90679 
240.152893 0.289788 
241.113693 0.229643 
243.063004 0.434316 
245.112503 0.259475 
255.137299 2.092943 
257.154114 8.300724 
257.24411 0.251729 
265.120514 0.695049 
271.096405 8.076511 
273.14679 0.82172 
283.132385 5.770511 
283.265991 0.235166 
301.1427 8.268493 
301.298615 0.239193 
327.121613 1.629879 
345.133301 26.175358 
345.254303 0.295174 
345.294098 0.734939 
345.344208 0.407131 
345.418304 0.331117 
345.464996 0.240458 
346.131897 0.411033 
346.14151 0.387519 
END IONS

