BEGIN IONS
PEPMASS=205.0
CHARGE=1+
COMPOUNDNAME=MoNA:2483599 Rickamicin
LIBRARYQUALITY=3
SMILES=N/A
INCHIKEY=URWAJWIAIPFPJE-YFMIWBNJSA-N
INCHI=InChI=1S/C19H37N5O7/c1-19(27)7-28-18(13(26)16(19)24-2)31-15-11(23)5-10(22)14(12(15)25)30-17-9(21)4-3-8(6-20)29-17/h3,9-18,24-27H,4-7,20-23H2,1-2H3/t9-,10+,11-,12+,13-,14-,15+,16-,17-,18-,19+/m1/s1
MSLEVEL=2
SOURCE_INSTRUMENT=LC-ESI-IT-LC-ESI-IT
FILENAME=output_mgf.mgf
SEQ=*..*
IONMODE=
ORGANISM=MONA
NAME=MoNA:2483599 Rickamicin [M+H]+
PI=MoNA
DATACOLLECTOR=MoNA
PUBMED=N/A
SUBMITUSER=mwang87
TAGS=
SPECTRUMID=CCMSLIB00000567479
SCANS=4730
68.2 8.064516 
69.2 5.678763 
83.2 4.989919 
151.1 2.18414 
169.1 32.375672 
187.1 100.0 
205.1 58.551747 
END IONS

