BEGIN IONS
PEPMASS=321.0
CHARGE=1+
COMPOUNDNAME=MoNA:2246800 2,2-Dichloro-N-[(1s,2s)-1,3-Dihydroxy-1-(4-Nitrophenyl)propan-2-Yl]acetamide
LIBRARYQUALITY=3
SMILES=N/A
INCHIKEY=WIIZWVCIJKGZOK-IUCAKERBSA-N
INCHI=InChI=1S/C11H12Cl2N2O5/c12-10(13)11(18)14-8(5-16)9(17)6-1-3-7(4-2-6)15(19)20/h1-4,8-10,16-17H,5H2,(H,14,18)/t8-,9-/m0/s1
MSLEVEL=2
SOURCE_INSTRUMENT=LC-ESI-QQ-LC-ESI-QQ
FILENAME=output_mgf.mgf
SEQ=*..*
IONMODE=
ORGANISM=MONA
NAME=MoNA:2246800 2,2-Dichloro-N-[(1s,2s)-1,3-Dihydroxy-1-(4-Nitrophenyl)propan-2-Yl]acetamide [M-H]-
PI=MoNA
DATACOLLECTOR=MoNA
PUBMED=N/A
SUBMITUSER=mwang87
TAGS=
SPECTRUMID=CCMSLIB00000565366
SCANS=2618
35.1 18.846154 
42.2 10.0 
45.2 1.346154 
46.0 16.923077 
46.8 4.423077 
54.9 1.923077 
59.2 76.923077 
70.4 0.961538 
71.2 2.884615 
73.0 1.923077 
75.0 1.923077 
77.1 3.461538 
78.1 14.423077 
79.2 21.346154 
83.2 17.692308 
85.2 1.730769 
90.9 1.153846 
92.2 1.923077 
93.2 8.076923 
95.0 2.5 
97.1 49.615385 
99.1 34.615385 
101.7 1.538462 
103.3 0.384615 
105.5 2.115385 
106.3 19.807692 
111.0 2.5 
113.1 6.538462 
113.5 1.346154 
114.9 1.730769 
117.0 4.038462 
118.0 8.269231 
119.3 3.076923 
121.3 100.0 
122.3 5.961538 
126.5 3.269231 
131.5 1.730769 
133.0 1.346154 
133.6 1.538462 
135.1 2.692308 
136.1 3.076923 
137.1 2.884615 
139.1 3.461538 
141.0 8.076923 
143.4 0.769231 
146.3 5.384615 
147.1 2.692308 
148.0 12.5 
151.3 65.576923 
152.2 97.115385 
159.1 4.230769 
161.3 1.730769 
163.4 1.346154 
171.0 0.576923 
176.1 3.076923 
178.9 2.115385 
179.5 0.576923 
187.0 3.461538 
212.7 0.384615 
261.2 11.923077 
END IONS

