BEGIN IONS
PEPMASS=436.137
CHARGE=1+
COMPOUNDNAME=NOSCAPINE
LIBRARYQUALITY=3
SMILES=N/A
INCHIKEY=AKNNEGZIBPJZJG-MSOLQXFVSA-N
INCHI=InChI=1S/C22H23NO7/c1-23-8-7-11-9-14-20(29-10-28-14)21(27-4)15(11)17(23)18-12-5-6-13(25-2)19(26-3)16(12)22(24)30-18/h5-6,9,17-18H,7-8,10H2,1-4H3/t17-,18+/m1/s1
MSLEVEL=2
SOURCE_INSTRUMENT=N/A-ESI-QFT
FILENAME=library_mgf.mgf
SEQ=*..*
IONMODE=positive
ORGANISM=MONA
NAME=NOSCAPINE [M+Na]+
PI=MoNA
DATACOLLECTOR=MoNA:VF-NPL-QEHF002753
PUBMED=N/A
SUBMITUSER=mwang87
TAGS=
SPECTRUMID=CCMSLIB00004693816
SCANS=2753
50.74081 0.001635 
50.952618 0.006277 
51.138786 0.008765 
51.174778 0.005205 
51.640827 0.002673 
51.752773 0.003684 
52.079796 0.009572 
52.356178 0.006593 
52.475666 0.005362 
52.818787 0.001441 
53.163445 0.001388 
53.576893 0.009416 
53.730953 0.001452 
54.1502 0.006095 
54.303669 0.005673 
54.357807 0.001618 
54.473446 0.005276 
54.475327 0.005323 
54.816742 0.001548 
56.084259 0.009124 
56.099636 0.00162 
57.901424 0.008231 
58.442867 0.005297 
58.96933 0.001346 
59.288624 0.006452 
59.542332 0.008178 
59.708202 0.006637 
59.903725 0.001456 
60.131912 0.005037 
62.835728 0.008397 
63.388081 0.002883 
63.756683 0.00147 
63.941845 0.002731 
64.621262 0.007516 
64.998863 0.00887 
65.567818 0.00587 
65.599663 0.010359 
65.718452 0.003176 
66.575005 0.001414 
67.620987 0.002765 
68.124718 0.003927 
68.601509 0.009105 
68.958038 0.005102 
69.112923 0.006413 
69.668503 0.008025 
70.045311 0.005232 
70.335808 0.004699 
70.910538 0.003588 
71.212044 0.008043 
71.25309 0.005423 
72.456871 0.008019 
73.833801 0.0082 
74.574013 0.009475 
74.814514 0.006518 
75.637848 0.005328 
75.767113 0.005429 
77.110512 0.00667 
77.436966 0.007561 
77.966492 0.001413 
80.314377 0.005182 
80.405693 0.007256 
80.61956 0.008267 
80.769424 0.010838 
81.726723 0.004672 
81.91629 0.004576 
82.818062 0.008049 
83.796661 0.001601 
84.279228 0.007826 
84.514931 0.001453 
84.562569 0.003292 
85.478523 0.004512 
85.574898 0.008733 
86.309723 0.006577 
87.084145 0.001558 
90.222786 0.007027 
91.810867 0.003048 
92.93914 0.00504 
93.657677 0.012379 
95.244751 0.008589 
95.417122 0.005971 
97.040962 0.007446 
98.742332 0.00301 
98.906967 0.008452 
99.053932 0.007073 
99.278778 0.007092 
99.424019 0.007557 
99.848457 0.008783 
100.711479 0.004364 
100.716461 0.006741 
100.761078 0.009581 
100.950966 0.005008 
103.166634 0.007211 
104.530579 0.001889 
104.680168 0.005973 
105.497597 0.004105 
106.10817 0.004425 
106.474159 0.001577 
107.972984 0.00977 
108.239624 0.005958 
108.607353 0.001569 
109.303986 0.003283 
109.575874 0.008789 
110.231674 0.009548 
111.269623 0.007964 
113.354034 0.001558 
115.267464 0.005172 
120.125526 0.005764 
121.379745 0.009354 
123.791473 0.005966 
124.09008 0.006227 
127.522591 0.002907 
128.264847 0.008907 
129.575592 0.007909 
129.592331 0.004544 
130.301086 0.005753 
130.584015 0.005988 
130.775116 0.003729 
130.853516 0.009625 
132.63205 0.006481 
134.578674 0.00693 
135.116714 0.007012 
135.668213 0.006732 
138.639267 0.007881 
139.060852 0.005396 
142.536667 0.005128 
144.670654 0.009353 
145.226273 0.004008 
148.556259 0.001448 
152.44902 0.002943 
152.83844 0.00917 
154.061203 0.007266 
154.429749 0.009363 
157.161835 0.007021 
158.05545 0.006621 
158.182358 0.009723 
159.111664 0.006395 
159.645828 0.001719 
159.856644 0.006728 
161.460495 0.009219 
162.091919 0.007534 
163.181503 0.003681 
164.174225 0.004628 
168.821289 0.001716 
171.118759 0.002993 
171.245636 0.007236 
172.192383 0.003779 
173.12326 0.001677 
173.312576 0.006649 
175.131424 0.005459 
176.057037 0.005675 
176.067032 0.00701 
177.851532 0.009203 
178.202118 0.002823 
181.958923 0.001679 
182.321426 0.009521 
182.972412 0.003274 
186.87027 0.007609 
193.230209 0.003155 
197.290787 0.001654 
197.300598 0.001596 
202.019897 0.006376 
204.646225 0.010684 
205.073288 6.261846 
206.076691 0.653359 
209.968369 0.007474 
211.355759 0.006629 
212.749817 0.004997 
213.750381 0.175479 
213.761932 0.548461 
213.784958 0.004203 
214.435638 0.010668 
215.227005 0.003462 
219.204666 0.013935 
220.076767 0.241553 
220.096619 100.0 
221.001465 0.013992 
221.100128 11.726362 
221.118149 0.007388 
222.102615 0.578384 
223.80452 0.007423 
232.050232 0.010288 
233.875229 0.003333 
245.498505 0.009173 
256.338654 0.00926 
256.493011 0.003483 
261.721588 0.009363 
262.434357 0.001623 
264.113556 0.006692 
270.39679 0.008267 
276.999939 0.005809 
280.029327 0.007056 
287.174072 0.001779 
290.940765 0.00926 
293.256348 0.004404 
296.840332 0.007345 
317.06604 0.172457 
318.069061 0.006254 
318.9328 0.006769 
332.088959 0.624427 
333.092072 0.047839 
333.331329 0.005558 
340.134827 0.00324 
346.104492 0.101777 
347.111023 0.011138 
350.658813 0.009727 
355.238739 0.010131 
362.100189 0.01991 
363.10675 0.004389 
367.244843 0.010472 
374.099762 0.183022 
375.100922 0.009934 
376.07843 0.540513 
377.081787 0.019845 
379.212921 0.009125 
391.102509 0.237919 
392.103241 0.007445 
393.500732 0.010181 
402.015137 0.006938 
406.334198 0.007298 
415.952637 0.00435 
416.462189 0.006514 
431.273499 0.001954 
435.007782 0.001753 
437.235779 0.055266 
440.133301 0.009161 
446.806854 0.009666 
457.764069 0.008014 
460.258698 0.006939 
END IONS

