BEGIN IONS
PEPMASS=337.072
CHARGE=1+
COMPOUNDNAME=rabelomycin
LIBRARYQUALITY=3
SMILES=N/A
INCHIKEY=JJOLHRYZQSDLSA-UHFFFAOYSA-N
INCHI=InChI=1S/C19H14O6/c1-19(25)6-8-5-11(21)15-16(13(8)12(22)7-19)17(23)9-3-2-4-10(20)14(9)18(15)24/h2-5,20-21,25H,6-7H2,1H3
MSLEVEL=2
SOURCE_INSTRUMENT=N/A-ESI-QFT
FILENAME=library_mgf.mgf
SEQ=*..*
IONMODE=negative
ORGANISM=MONA
NAME=rabelomycin [M-H]-
PI=MoNA
DATACOLLECTOR=MoNA:VF-NPL-QEHF000940
PUBMED=N/A
SUBMITUSER=mwang87
TAGS=
SPECTRUMID=CCMSLIB00004692003
SCANS=940
50.217682 0.008904 
50.502583 0.009021 
51.187729 0.007431 
52.563271 0.009096 
52.724419 0.008076 
53.603962 0.009661 
54.256996 0.009315 
54.347355 0.009971 
54.451611 0.008899 
54.853661 0.008408 
54.970673 0.008136 
55.135815 0.009923 
55.288307 0.008935 
56.548508 0.009109 
56.981556 0.008 
56.988914 0.009023 
57.160446 0.008879 
57.840965 0.009561 
58.195919 0.007665 
58.633816 0.009903 
58.795456 0.009365 
58.886993 0.008382 
59.012527 0.213925 
59.864334 0.008436 
59.866871 0.00768 
60.217617 0.008891 
60.711456 0.009428 
61.987034 0.01608 
62.010838 0.008822 
62.330826 0.008805 
65.118828 0.009755 
65.702415 0.010199 
65.810997 0.008953 
66.332176 0.008457 
66.456665 0.00967 
67.596764 0.007528 
67.995621 0.010391 
70.380478 0.009008 
70.684265 0.00833 
71.180435 0.00866 
71.95369 0.011777 
72.013016 0.008432 
72.902084 0.008258 
73.437988 0.009429 
74.206047 0.009281 
74.884834 0.010339 
76.629044 0.00782 
78.75425 0.111948 
80.5616 0.010059 
80.720474 0.009128 
83.012383 0.010425 
83.380318 0.009244 
85.720039 0.008032 
85.878807 0.009047 
86.270088 0.009924 
86.461555 0.008228 
87.390854 0.011161 
90.190323 0.010714 
90.238014 0.01069 
90.269386 0.009678 
90.817001 0.008844 
90.97258 0.010149 
91.333305 0.008275 
91.535515 0.007754 
92.989182 0.008957 
94.239166 0.01048 
94.331612 0.008257 
94.749741 0.008796 
95.439613 0.009383 
96.330452 0.007776 
96.88105 0.007399 
96.958786 0.049854 
97.562408 0.009288 
99.236397 0.010586 
99.497757 0.007808 
99.748055 0.008571 
100.028488 0.009836 
100.955505 0.007669 
102.740715 0.008364 
102.813263 0.008878 
103.168182 0.008978 
105.039169 0.010644 
105.496407 0.008914 
105.757507 0.009465 
106.127045 0.008406 
106.41877 0.010238 
108.85936 0.010546 
110.46785 0.009061 
110.57737 0.009399 
113.086823 0.011526 
113.467514 0.008554 
114.076729 0.010039 
115.459267 0.009931 
117.148155 0.009564 
118.448441 0.008393 
119.173187 0.010111 
120.053146 0.008679 
122.367012 0.008488 
128.15239 0.010907 
128.973541 0.009924 
133.152756 0.007924 
133.651062 0.008969 
134.065445 0.010873 
134.25827 0.007829 
139.037659 0.009638 
142.164047 0.008983 
145.711014 0.008248 
145.85347 0.010842 
146.350922 0.011487 
146.509384 0.010799 
147.315247 0.011005 
149.20134 0.008806 
149.612091 0.009039 
153.239502 0.010234 
157.613327 0.009532 
158.469986 0.009425 
158.663681 0.010692 
161.92041 0.00908 
163.111969 0.163338 
165.980057 0.009149 
169.562332 0.009789 
170.54335 0.00937 
171.074539 0.008802 
171.261978 0.008466 
171.688843 0.010944 
173.419464 0.00835 
173.98587 0.008157 
175.026459 0.01068 
177.953247 0.009472 
182.02742 0.009228 
182.217361 0.009665 
184.095535 0.009039 
185.112061 0.00945 
186.762115 0.009126 
190.833099 0.010451 
196.947296 0.010088 
198.912827 0.010517 
200.555893 0.009664 
202.200958 0.010529 
205.98761 0.01248 
206.491867 0.010921 
214.838013 0.142275 
214.845963 0.24727 
214.857391 0.148291 
214.867661 0.13248 
220.666611 0.009851 
230.422867 0.009948 
233.384048 0.008673 
234.209824 0.00897 
235.546402 0.011448 
242.344101 0.009373 
246.882904 0.008346 
249.797318 0.011483 
251.071182 0.03012 
251.356186 0.010631 
252.042419 0.135344 
253.050568 10.52308 
254.054016 1.53215 
255.066284 0.177533 
255.232834 0.768481 
256.236023 0.078822 
262.910187 0.009765 
266.058197 0.703055 
266.414642 0.010881 
266.957458 0.009844 
267.065735 0.55528 
275.071533 0.010723 
277.050568 1.900783 
278.05484 0.27751 
279.029938 0.279341 
279.065948 0.080367 
280.037476 1.024484 
281.022125 0.010693 
281.04364 0.162812 
291.066498 1.075011 
291.401154 0.009751 
292.07016 0.096782 
293.045532 0.176666 
293.082123 1.294178 
294.053406 3.309446 
294.084137 0.185779 
295.061127 37.987591 
295.100311 0.011722 
296.064636 6.033708 
297.077057 0.313303 
307.060303 0.069676 
308.065247 0.024986 
308.211609 0.008728 
309.077026 1.655406 
310.080841 0.206473 
311.093903 0.010544 
312.411957 0.009657 
319.061157 5.498307 
320.067444 2.440769 
321.039825 0.039005 
321.074768 0.534729 
322.048157 15.127698 
323.052612 3.370848 
323.133301 0.009959 
324.055725 0.182257 
335.056091 0.169655 
336.061951 0.790256 
336.397461 0.010826 
337.071838 100.0 
337.205414 0.21239 
337.313477 0.012604 
338.075806 23.0128 
339.087555 5.565306 
339.137817 0.009642 
339.199707 3.767376 
339.233368 0.012702 
354.347504 0.009912 
359.477051 0.011473 
END IONS

