BEGIN IONS
PEPMASS=273.076
CHARGE=1+
COMPOUNDNAME=Massbank:PB000125 Naringenin|5,7-dihydroxy-2-(4-hydroxyphenyl)chroman-4-one
LIBRARYQUALITY=3
SMILES=C1C(OC2=CC(=CC(=C2C1=O)O)O)C3=CC=C(C=C3)O
INCHIKEY=FTVWIRXFELQLPI-UHFFFAOYSA-N
INCHI=1S/C15H12O5/c16-9-3-1-8(2-4-9)13-7-12(19)15-11(18)5-10(17)6-14(15)20-13/h1-6,13,16-18H,7H2
MSLEVEL=2
SOURCE_INSTRUMENT=ESI-LC-ESI-QTOF
FILENAME=Massbank_ESI_positive_8_1_2014_peaks.mgf
SEQ=*..*
IONMODE=Positive
ORGANISM=MASSBANK
NAME=Massbank:PB000125 Naringenin|5,7-dihydroxy-2-(4-hydroxyphenyl)chroman-4-one [M+H]+
PI=Putative Massbank Match
DATACOLLECTOR=Massbank
PUBMED=N/A
SUBMITUSER=mwang87
TAGS=
SPECTRUMID=CCMSLIB00000221557
SCANS=10305
53.037 111.391 
55.017 718.038 
65.038 1125.168 
67.018 1665.237 
68.997 2395.872 
69.035 1956.044 
77.039 605.468 
79.018 331.546 
81.034 135.272 
83.014 471.723 
85.03 98.767 
91.054 7753.953 
92.058 168.025 
92.999 114.286 
95.05 921.201 
97.029 914.232 
107.049 644.063 
111.011 382.203 
115.054 299.384 
119.05 5392.656 
120.054 146.851 
123.044 249.397 
125.022 186.626 
128.06 202.332 
147.043 597.159 
152.06 313.053 
153.018 10000.0 
154.024 440.901 
157.068 101.153 
END IONS

