BEGIN IONS
PEPMASS=333.12
CHARGE=1+
COMPOUNDNAME=MITOMYCIN C
LIBRARYQUALITY=3
SMILES=N/A
INCHIKEY=NWIBSHFKIJFRCO-WUDYKRTCSA-N
INCHI=InChI=1S/C15H18N4O5/c1-5-9(16)12(21)8-6(4-24-14(17)22)15(23-2)13-7(18-13)3-19(15)10(8)11(5)20/h6-7,13,18H,3-4,16H2,1-2H3,(H2,17,22)/t6-,7+,13+,15-/m1/s1
MSLEVEL=2
SOURCE_INSTRUMENT=N/A-ESI-QFT
FILENAME=library_mgf.mgf
SEQ=*..*
IONMODE=negative
ORGANISM=MONA
NAME=MITOMYCIN C [M-H]-
PI=MoNA
DATACOLLECTOR=MoNA:VF-NPL-QEHF027729
PUBMED=N/A
SUBMITUSER=mwang87
TAGS=
SPECTRUMID=CCMSLIB00004721310
SCANS=27729
50.045712 0.064574 
50.097088 0.111845 
50.770859 0.072077 
51.095535 0.077902 
51.316322 0.104526 
51.505924 0.128368 
51.511448 0.080317 
52.086311 0.097692 
53.083572 0.045752 
53.901688 0.046599 
54.15242 0.084284 
54.265343 0.071206 
55.002033 0.079688 
55.017536 2.07014 
55.05592 0.11677 
55.871765 0.065853 
56.297569 0.195669 
56.469753 0.191863 
57.217556 0.082414 
57.983051 0.045637 
58.759556 0.036606 
59.828594 0.041568 
59.899292 0.126997 
59.983543 0.174018 
60.007679 100.0 
60.062248 0.063997 
60.264633 0.05794 
60.308887 0.150887 
60.42522 0.085823 
60.438118 0.096526 
60.441956 0.099986 
60.802345 0.101082 
60.842991 0.055415 
61.60915 0.100669 
61.838623 0.078469 
62.02459 0.064967 
62.129169 0.115146 
62.600834 0.041814 
62.709404 0.149152 
62.947605 0.045241 
62.985229 0.086129 
63.503067 0.11252 
63.550701 0.080356 
63.946297 0.044268 
64.934738 0.048367 
65.168816 0.036159 
65.555824 0.114322 
65.997162 0.389747 
66.033531 2.932955 
66.440353 0.086049 
66.45343 0.177925 
67.336639 0.155398 
67.484779 0.092886 
67.78215 0.040921 
68.064011 0.04757 
68.532143 0.03953 
68.891373 0.099802 
69.210899 0.066003 
70.024803 0.100711 
71.040672 0.132705 
71.310799 0.07036 
71.917564 0.185416 
72.108337 0.138951 
72.201851 0.116446 
72.552643 0.109388 
73.418037 0.07199 
73.643494 0.080628 
73.78447 0.119581 
73.845413 0.176319 
75.444206 0.12092 
75.873413 0.182964 
78.432243 0.105292 
78.559059 0.194405 
79.464081 0.038104 
80.032227 0.072703 
81.001083 0.191184 
81.8452 0.074777 
82.669144 0.05928 
83.029312 0.130444 
85.748459 0.160609 
85.763954 0.162453 
85.889854 0.078524 
87.464554 0.082043 
88.225891 0.093535 
89.369225 0.041274 
90.684723 0.047538 
91.248299 0.120725 
91.266151 0.12791 
92.049324 0.638437 
92.121475 0.069257 
92.927849 0.129961 
93.064247 0.058252 
93.679794 0.199158 
93.872635 0.137787 
95.39325 0.085146 
95.909294 0.051864 
95.982849 0.08169 
96.078262 0.117837 
96.186951 0.125635 
96.493675 0.042532 
97.102036 0.071147 
97.151131 0.076657 
97.227592 0.111966 
97.823242 0.047295 
98.366249 0.129927 
99.086304 0.120035 
99.171455 0.10811 
100.421028 0.127343 
100.800148 0.127514 
101.318176 0.035058 
101.681046 0.090454 
104.049217 0.986353 
104.526497 0.047344 
108.077248 0.068789 
110.482712 0.074356 
113.363892 0.118711 
118.824776 0.145804 
119.023766 6.231417 
119.652992 0.113022 
121.547874 0.153972 
122.023483 0.11488 
122.041786 0.127549 
122.158203 0.074876 
123.628044 0.194185 
125.688896 0.051742 
125.827026 0.100946 
127.324989 0.107266 
128.012192 0.174969 
128.138519 0.129438 
128.248245 0.047372 
129.503387 0.046162 
129.974426 0.095895 
130.065338 0.224053 
130.106079 0.095521 
130.679886 0.077013 
133.635605 0.116632 
134.165405 0.085471 
135.301254 0.206777 
135.610489 0.12371 
137.918381 0.114842 
138.766602 0.070556 
139.140533 0.104169 
143.684601 0.04784 
143.894531 0.068594 
144.652695 0.197681 
145.03978 0.149649 
145.632126 0.04396 
145.653946 0.095338 
147.018982 0.112618 
148.038925 0.050983 
149.034424 0.383415 
150.365753 0.042263 
151.996674 0.09392 
153.482437 0.099597 
157.039551 0.039498 
159.05545 2.752007 
160.039246 0.097685 
160.140869 0.093228 
160.295746 0.104492 
161.047272 1.124415 
162.696442 0.095739 
164.581421 0.039375 
165.065826 0.079511 
166.574188 0.140199 
167.135818 0.047881 
169.075806 0.142456 
170.471786 0.179873 
172.222061 0.050764 
173.03479 4.76639 
173.39415 0.130783 
174.055084 0.298085 
175.05043 30.007326 
175.489822 0.043546 
176.053757 1.71708 
176.974197 0.054763 
177.412888 0.131752 
179.311874 0.136978 
182.602356 0.086072 
182.917847 0.071428 
183.230209 0.159948 
183.865158 0.077959 
184.050125 0.136537 
184.432465 0.126544 
185.034668 0.048043 
186.042236 0.204542 
187.05043 7.879441 
188.058426 12.28057 
189.066315 0.59882 
189.50766 0.096989 
189.826996 0.039719 
193.455963 0.160339 
196.918198 0.075386 
197.036148 0.133693 
199.050598 2.371207 
200.045792 6.553899 
200.055603 0.168332 
200.238068 0.165223 
201.050049 0.041141 
201.066299 20.781109 
201.328979 0.116166 
202.061172 2.511545 
202.070404 0.909511 
203.045502 19.51495 
204.052719 1.290657 
204.086411 0.13156 
205.061295 0.046237 
205.456894 0.051627 
206.00032 0.128796 
207.095352 0.122738 
209.008865 0.052418 
210.49762 0.094286 
211.050568 0.050308 
212.046936 0.419584 
212.058533 6.401003 
212.109177 0.163198 
212.651047 0.045125 
213.054001 2.601871 
213.066086 5.518129 
213.507706 0.116809 
214.061371 1.086308 
215.044968 0.119061 
215.081879 1.532449 
215.660751 0.067266 
216.053467 3.228101 
216.274323 0.144721 
217.061234 0.352929 
219.927872 1.457005 
221.21727 0.056895 
223.729416 0.097612 
224.04509 0.047598 
224.780319 0.190264 
224.892731 0.060004 
225.053696 0.10912 
226.061554 7.705823 
227.069626 16.513359 
228.04129 0.398279 
228.077316 12.025561 
228.799362 0.186687 
229.061661 0.441468 
229.083466 0.213853 
230.093018 0.220308 
231.076935 0.123569 
232.164398 0.125472 
233.198196 0.088802 
233.231354 0.131951 
237.159683 0.122619 
238.283661 0.055184 
240.063431 0.04955 
240.077499 4.859016 
242.422089 0.053587 
248.976425 0.120822 
249.068832 0.042736 
253.027023 0.206885 
253.57872 0.059067 
258.088318 2.282711 
258.132233 0.072763 
271.187683 0.133519 
271.323975 0.077915 
272.199982 0.038598 
275.01886 0.122319 
283.728638 0.130605 
286.062744 0.080248 
286.520233 0.084116 
293.279755 0.049128 
294.630249 0.066566 
302.037415 0.08996 
303.02356 0.148222 
306.759216 0.123796 
313.06839 0.159844 
328.010529 0.103126 
335.410156 0.069884 
349.70578 0.045638 
354.160522 0.126412 
356.107819 0.09745 
END IONS

