BEGIN IONS
PEPMASS=871.485
CHARGE=1+
COMPOUNDNAME=ABAMECTIN
LIBRARYQUALITY=3
SMILES=N/A
INCHIKEY=RRZXIRBKKLTSOM-XPNPUAGNSA-N
INCHI=InChI=1S/C48H72O14/c1-11-25(2)43-28(5)17-18-47(62-43)23-34-20-33(61-47)16-15-27(4)42(26(3)13-12-14-32-24-55-45-40(49)29(6)19-35(46(51)58-34)48(32,45)52)59-39-22-37(54-10)44(31(8)57-39)60-38-21-36(53-9)41(50)30(7)56-38/h12-15,17-19,25-26,28,30-31,33-45,49-50,52H,11,16,20-24H2,1-10H3/b13-12+,27-15+,32-14+/t25-,26-,28-,30-,31-,33+,34-,35-,36-,37-,38-,39-,40+,41-,42-,43+,44-,45+,47+,48+/m0/s1
MSLEVEL=2
SOURCE_INSTRUMENT=N/A-ESI-QFT
FILENAME=library_mgf.mgf
SEQ=*..*
IONMODE=negative
ORGANISM=MONA
NAME=ABAMECTIN [M-H]-
PI=MoNA
DATACOLLECTOR=MoNA:VF-NPL-QEHF028039
PUBMED=N/A
SUBMITUSER=mwang87
TAGS=
SPECTRUMID=CCMSLIB00004721620
SCANS=28039
61.46233 0.064441 
61.986961 3.371336 
62.371868 0.062547 
63.609898 0.063157 
63.978439 0.064653 
64.168701 0.061835 
64.254509 0.065054 
64.301903 0.06699 
64.342766 0.077263 
65.009628 0.045186 
65.038269 1.383176 
67.017525 10.988716 
67.661942 0.067388 
67.931984 0.070364 
67.995415 0.062524 
68.020828 0.097359 
68.492821 0.035768 
68.996712 0.491587 
69.031265 0.220647 
69.033173 18.22263 
69.494431 0.064008 
69.500854 0.041622 
70.036636 0.075676 
70.475204 0.085377 
70.842308 0.068585 
71.012436 0.567535 
71.532188 0.08988 
72.757004 0.059807 
72.880424 0.091036 
72.991745 0.130146 
73.027946 0.062604 
73.239212 0.056432 
74.071442 0.062901 
74.122368 0.070015 
77.385445 0.040461 
77.542786 0.050514 
77.953217 0.044043 
77.955887 0.049633 
79.05394 0.391 
79.30941 0.058978 
80.607529 0.060771 
81.033218 12.981294 
82.036797 0.084506 
82.707481 0.037874 
83.012413 0.27046 
83.048882 20.077663 
83.473465 0.060446 
84.020317 70.767159 
84.052223 0.3759 
85.02356 1.606647 
85.028122 100.0 
85.043739 0.071329 
86.031464 3.402439 
87.043816 0.359467 
88.013733 0.062231 
89.04142 0.598882 
89.112877 0.052648 
89.136597 0.075029 
89.291046 0.077607 
90.665848 0.040487 
90.720306 0.080908 
90.997276 0.082642 
91.064613 0.037975 
92.438416 0.06074 
92.928513 0.072071 
93.033226 3.626881 
93.90155 0.079619 
94.956993 0.083899 
95.012489 0.190927 
95.048859 0.983864 
96.808342 0.051388 
96.985672 0.073543 
97.028152 9.186862 
97.064537 35.833549 
98.067841 1.745404 
98.758186 0.066359 
99.007423 0.963304 
99.043793 1.336578 
103.374786 0.038615 
104.549202 0.072276 
105.033218 0.494106 
105.255051 0.039241 
107.048882 6.216491 
107.102913 0.041958 
107.450653 0.037668 
108.287605 0.03983 
109.028152 59.634407 
109.06456 2.201556 
109.505753 0.093122 
110.031494 3.10332 
110.035934 2.747751 
110.080856 0.077454 
111.0438 9.232881 
112.047112 0.091295 
112.791145 0.036495 
115.607574 0.045559 
116.428787 0.063443 
119.048943 0.077824 
120.011078 0.050692 
121.028137 3.085811 
121.064522 0.288047 
122.036049 2.370391 
123.043839 12.692245 
123.080276 1.13105 
123.729034 0.06854 
123.85714 0.063263 
124.047234 0.441353 
125.023125 1.696845 
125.059479 4.17998 
125.095787 0.100589 
127.038818 1.683184 
129.120819 0.046908 
130.657181 0.036065 
130.749664 0.068073 
130.960907 0.065597 
131.048813 0.103184 
132.071808 0.076249 
132.505768 0.070737 
133.064682 0.369027 
134.227951 0.035396 
135.043884 11.849478 
135.080338 0.558282 
136.047272 0.171891 
136.369537 0.044302 
137.022705 0.076193 
137.059616 4.47763 
139.038879 0.944267 
139.111603 1.456755 
142.695297 0.053452 
143.440491 0.062083 
144.9617 0.098938 
146.035767 0.084816 
146.598846 0.092676 
147.043945 0.354778 
147.08046 0.365709 
148.051682 0.067805 
149.023224 7.09853 
149.059753 0.654531 
149.096085 2.063296 
150.026382 0.163135 
150.396988 0.087812 
150.590103 0.077414 
151.039017 0.796306 
151.075775 0.073581 
151.166595 0.101036 
153.054596 6.937347 
154.206284 0.036502 
154.770386 0.053285 
155.654526 0.090224 
157.064316 0.044304 
157.756973 0.064839 
159.080292 0.201193 
160.834869 0.039324 
161.059814 0.685977 
163.039246 0.500129 
166.382141 0.064615 
167.033966 23.486813 
168.03743 2.713186 
168.191727 0.091192 
168.581085 0.045823 
170.082382 0.04869 
170.237213 0.038773 
171.08049 2.389146 
173.059921 0.896312 
173.096146 0.097665 
174.031097 0.055367 
174.124771 0.039768 
175.039185 0.386361 
177.054718 0.098648 
179.070389 0.786163 
181.121826 0.073699 
181.776657 0.064317 
185.060059 1.597245 
185.096283 0.441546 
186.06778 1.168045 
187.039536 0.088612 
187.075821 0.21454 
187.112228 0.157748 
188.04747 0.052405 
189.054733 0.079523 
189.128296 0.134557 
190.026245 0.073381 
191.033966 0.260695 
191.143661 0.115663 
191.241623 0.096489 
194.367477 0.075257 
197.096283 3.474284 
197.330963 0.035954 
199.075714 1.339262 
199.112442 0.146434 
201.055298 0.358553 
202.062424 0.079562 
202.652512 0.093962 
203.033813 0.103997 
203.0914 0.080997 
206.021896 0.074357 
210.363647 0.064731 
211.112183 0.694763 
212.083527 0.658672 
213.052658 0.06428 
213.091232 1.975612 
213.127365 0.111282 
214.062836 0.212772 
214.098816 1.37964 
214.380814 0.094021 
215.092514 0.105644 
215.107071 0.292287 
216.11499 0.109973 
221.04039 0.078346 
222.914185 0.103398 
223.075882 2.732225 
224.083084 0.087399 
225.0914 0.35302 
227.071198 0.251167 
228.077759 0.201328 
229.086914 0.549449 
229.107559 58.802612 
230.094833 0.108819 
230.110825 6.99493 
240.078644 1.488351 
241.086273 1.342178 
241.706329 0.069194 
242.094238 0.839288 
243.138504 0.797105 
243.989334 0.052266 
245.119263 0.078465 
249.128708 0.239744 
253.122635 0.082638 
253.690338 0.046216 
254.398926 0.043911 
255.123245 0.45092 
256.128754 0.093003 
257.081238 0.139329 
257.119843 0.042416 
260.104156 0.093768 
263.144165 0.25387 
265.15918 0.038314 
268.588074 0.061759 
271.134247 0.972186 
275.143158 0.042184 
277.161133 0.062682 
285.230408 0.07017 
293.155029 0.074306 
293.215485 0.045536 
297.930328 0.053298 
301.160889 0.074308 
304.201385 0.317414 
304.220245 0.114148 
312.100067 0.056215 
317.154694 0.072842 
317.190735 1.392321 
317.620605 0.078973 
319.170074 0.141509 
321.478577 0.084068 
325.18515 0.065889 
335.165314 0.352724 
344.796692 0.07024 
345.149475 0.703088 
362.114868 0.06681 
381.16449 0.049561 
396.948425 0.063961 
399.232117 0.141081 
402.543427 0.059989 
415.228455 0.044367 
417.39386 0.072908 
422.825439 0.066569 
430.22226 0.072546 
431.244659 0.58902 
435.688202 0.062647 
441.834106 0.03959 
443.222321 0.279153 
469.256104 0.095962 
482.535095 0.076709 
517.296265 0.431015 
518.296753 0.113963 
519.30957 0.083893 
523.736572 0.086 
529.29248 0.191096 
547.307678 0.200225 
558.793518 0.079227 
561.971802 0.086273 
565.317871 0.09658 
594.790039 0.071196 
708.218079 0.067789 
708.992859 0.072113 
709.076538 0.160377 
710.155823 0.067432 
720.264587 0.081084 
728.533997 0.090144 
735.43335 0.065733 
763.42865 0.272536 
765.695557 0.063284 
783.095032 0.084316 
789.444214 0.219792 
799.412415 0.083707 
841.634644 0.087147 
851.459412 0.275189 
852.462646 0.626161 
853.469482 0.181135 
872.71228 0.09058 
893.789734 0.076152 
END IONS

