BEGIN IONS
TITLE=Scan Number: 1
PEPMASS=432.311
CHARGE=1+
COMPOUNDNAME=Pellasoren A
LIBRARYQUALITY=1
SMILES=N/A
INCHIKEY=KJDLCCSAVYUQIT-NGFBJTOHSA-N
INCHI=InChI=1S/C26H41NO4/c1-9-11-23(30-8)25(28)27-22(7)15-18(3)14-17(2)12-10-13-19(4)24-20(5)16-21(6)26(29)31-24/h10-12,14-15,19-22,24H,9,13,16H2,1-8H3,(H,27,28)/b12-10+,17-14+,18-15+,23-11-/t19-,20-,21+,22-,24+/m0/s1
MSLEVEL=2
SOURCE_INSTRUMENT=LC-ESI-qTof
FILENAME=PellasorenA_CID_maxis4G.mgf
SEQ=*..*
NOTES=
IONMODE=Positive
ORGANISM=GNPS-LIBRARY
NAME=Pellasoren A M+H
SPECTRUMID=CCMSLIB00000427303
ACTIVATION=CID
INSTRUMENT=ion trap
SCANS=1
149.133072 981.0 
149.899475 217.0 
150.068558 248.0 
151.113235 690.0 
155.107925 1103.0 
156.102646 9503.0 
157.105682 1379.0 
158.109131 374.0 
159.117874 1005.0 
160.123535 260.0 
161.096756 213.0 
161.133469 2652.0 
162.13765 552.0 
163.11203 808.0 
163.149246 272.0 
165.12735 816.0 
167.108948 426.0 
169.123795 355.0 
170.117706 540.0 
171.117996 682.0 
173.132614 3976.0 
174.13765 1147.0 
175.112213 205.0 
175.148651 23299.0 
176.15213 3318.0 
177.127594 1682.0 
177.160446 359.0 
178.131027 579.0 
179.143341 449.0 
181.123581 957.0 
182.125931 359.0 
183.116852 433.0 
183.655548 209.0 
185.133301 658.0 
187.148224 2683.0 
188.155396 1887.0 
189.126709 477.0 
189.163696 3798.0 
190.167435 1068.0 
191.144272 571.0 
192.107971 244.0 
193.121429 820.0 
195.139114 3720.0 
196.14006 804.0 
197.135025 504.0 
197.154556 327.0 
198.136887 217.0 
199.149094 355.0 
200.148346 311.0 
201.126282 359.0 
201.164612 1619.0 
202.167908 343.0 
203.142807 414.0 
203.1819 292.0 
204.144241 256.0 
205.121323 366.0 
205.158539 229.0 
207.136948 1328.0 
208.133255 205.0 
209.154266 973.0 
210.151031 496.0 
211.149643 571.0 
213.165558 264.0 
215.142609 630.0 
215.178818 1186.0 
216.184494 453.0 
217.158401 662.0 
217.19458 307.0 
219.139557 520.0 
221.154266 1462.0 
222.149796 319.0 
223.168762 603.0 
225.163986 965.0 
227.179672 1974.0 
228.185791 229.0 
229.159332 1052.0 
229.195145 2415.0 
230.15625 217.0 
230.198303 599.0 
233.154297 1379.0 
234.157944 209.0 
235.169327 516.0 
236.168182 252.0 
243.175293 1600.0 
244.171478 410.0 
245.190063 567.0 
246.191589 201.0 
247.169235 2128.0 
248.174042 544.0 
257.191101 288.0 
257.227081 749.0 
258.230011 260.0 
259.204712 311.0 
261.18573 1493.0 
262.182251 583.0 
263.199982 2573.0 
264.203522 630.0 
267.21048 1852.0 
268.213928 560.0 
275.199005 469.0 
277.216095 1292.0 
278.21936 307.0 
285.221191 4311.0 
286.224213 946.0 
287.226685 303.0 
302.218842 311.0 
303.129303 260.0 
303.18219 611.0 
303.232635 154669.0 
304.207092 370.0 
304.235535 28631.0 
305.238159 3586.0 
306.241608 414.0 
318.208984 225.0 
318.242767 244.0 
332.220551 272.0 
350.231262 587.0 
382.269653 205.0 
400.283539 642.0 
401.284027 232.0 
414.299103 248.0 
432.311676 15925.0 
433.314972 4575.0 
434.317169 863.0 
449.336548 201.0 
451.274261 288.0 
451.784546 276.0 
454.292358 768.0 
455.295319 248.0 
460.272614 359.0 
460.773804 252.0 
477.367767 299.0 
666.934814 477.0 
667.434143 248.0 
674.92157 587.0 
675.424194 634.0 
675.921631 1127.0 
676.423096 824.0 
676.922546 1485.0 
677.424011 642.0 
683.422546 276.0 
683.923462 477.0 
727.536072 292.0 
863.616699 14150.0 
864.619751 7392.0 
865.623047 2065.0 
866.623047 536.0 
880.636047 299.0 
881.648987 311.0 
882.591858 485.0 
883.087036 768.0 
883.585632 658.0 
884.09314 201.0 
884.589661 229.0 
885.597717 1907.0 
886.601501 1277.0 
887.601318 323.0 
890.574646 544.0 
891.08197 717.0 
891.570068 1407.0 
892.077026 946.0 
892.579712 776.0 
893.067017 382.0 
893.573303 390.0 
894.073975 225.0 
END IONS

