BEGIN IONS
PEPMASS=345.0
CHARGE=1+
COMPOUNDNAME=MoNA:2291441 Gibberellin
LIBRARYQUALITY=3
SMILES=N/A
INCHIKEY=IXORZMNAPKEEDV-UHFFFAOYSA-N
INCHI=InChI=1S/C19H22O6/c1-9-7-17-8-18(9,24)5-3-10(17)19-6-4-11(20)16(2,15(23)25-19)13(19)12(17)14(21)22/h4,6,10-13,20,24H,1,3,5,7-8H2,2H3,(H,21,22)
MSLEVEL=2
SOURCE_INSTRUMENT=LC-ESI-QQ-LC-ESI-QQ
FILENAME=output_mgf.mgf
SEQ=*..*
IONMODE=
ORGANISM=MONA
NAME=MoNA:2291441 Gibberellin [M-H]-
PI=MoNA
DATACOLLECTOR=MoNA
PUBMED=N/A
SUBMITUSER=mwang87
TAGS=
SPECTRUMID=CCMSLIB00000565155
SCANS=2407
43.1 0.304751 
45.1 0.152376 
45.9 0.166228 
59.2 0.484832 
61.1 0.23549 
70.9 7.1201 
73.0 0.678764 
78.7 0.124671 
83.4 11.580551 
95.4 0.193933 
97.3 0.096966 
100.7 0.041557 
105.4 0.277047 
119.0 0.692617 
128.7 0.027705 
131.0 0.443275 
131.9 0.069262 
132.7 0.096966 
133.8 0.18008 
134.8 0.207785 
137.2 0.110819 
141.0 0.083114 
143.3 100.0 
144.9 0.249342 
146.0 0.138523 
147.1 0.166228 
150.5 0.041557 
155.1 0.498684 
156.9 0.18008 
158.7 0.18008 
161.2 5.859537 
165.5 0.096966 
169.2 0.374013 
171.2 0.346308 
172.2 0.041557 
173.4 0.526389 
177.1 0.096966 
180.9 0.221637 
183.1 0.567946 
185.1 1.329824 
187.2 0.18008 
193.1 0.207785 
195.0 0.096966 
197.3 1.676132 
198.3 0.124671 
199.2 0.332456 
201.3 3.657016 
203.1 0.110819 
205.4 0.138523 
209.2 0.290899 
211.2 0.152376 
213.4 1.870065 
215.4 0.997368 
217.1 0.055409 
219.4 0.166228 
221.3 40.656601 
223.3 0.207785 
224.1 0.207785 
225.0 0.263194 
227.2 8.602299 
237.4 0.664912 
239.3 41.834049 
241.2 0.096966 
243.4 0.249342 
245.5 0.263194 
255.0 1.994736 
257.2 5.942651 
264.9 0.23549 
271.5 4.792908 
273.3 10.86023 
283.4 3.005957 
289.0 0.027705 
299.7 0.069262 
301.3 5.000693 
327.7 0.789583 
345.5 10.167613 
END IONS

