BEGIN IONS
PEPMASS=173.009
CHARGE=1+
COMPOUNDNAME=Aconitic Acid
LIBRARYQUALITY=3
SMILES=N/A
INCHIKEY=GTZCVFVGUGFEME-IWQZZHSRSA-N
INCHI=InChI=1S/C6H6O6/c7-4(8)1-3(6(11)12)2-5(9)10/h1H,2H2,(H,7,8)(H,9,10)(H,11,12)/b3-1-
MSLEVEL=2
SOURCE_INSTRUMENT=N/A-ESI-QFT
FILENAME=library_mgf.mgf
SEQ=*..*
IONMODE=negative
ORGANISM=MONA
NAME=Aconitic Acid [M-H]-
PI=MoNA
DATACOLLECTOR=MoNA:VF-NPL-QEHF026289
PUBMED=N/A
SUBMITUSER=mwang87
TAGS=
SPECTRUMID=CCMSLIB00004717352
SCANS=26289
50.080952 0.068992 
50.51339 0.090491 
50.517033 0.061041 
50.59473 0.072713 
51.663181 0.070866 
52.374401 0.074817 
52.562202 0.087378 
52.663864 0.078936 
54.502968 0.065337 
54.610477 0.069925 
54.625393 0.04717 
54.649845 0.110823 
54.713032 0.077541 
54.72047 0.058564 
54.85154 0.080606 
55.017815 0.053698 
55.034786 0.070745 
55.429379 0.078221 
56.095783 0.06293 
56.173409 0.123061 
57.407352 0.081605 
58.615582 0.067161 
58.741322 0.107754 
59.913223 0.053001 
60.009941 0.063591 
60.597919 0.07585 
60.606602 0.05441 
61.693214 0.05353 
63.477676 0.067517 
63.701813 0.066788 
65.175476 0.045689 
67.01757 3.681311 
69.235435 0.072273 
69.567245 0.066547 
69.671501 0.087081 
69.783066 0.085745 
71.199524 0.079051 
71.548889 0.059798 
72.991798 0.067392 
74.052071 0.070081 
74.07074 0.063394 
74.699127 0.046547 
74.88282 0.062847 
76.508759 0.048063 
77.11129 0.059728 
78.158257 0.082564 
78.964821 0.063178 
79.134293 0.052269 
81.904709 0.081748 
82.711357 0.085928 
83.01255 0.549727 
83.798103 0.049252 
85.013916 0.169312 
85.02813 100.0 
85.042641 0.242182 
85.331154 0.079661 
85.655663 0.088781 
85.712906 0.082242 
85.868134 0.081917 
86.031494 3.807097 
86.27066 0.060207 
86.478348 0.08548 
86.614571 0.058534 
86.62793 0.13494 
86.70195 0.122677 
88.803925 0.073622 
91.643669 0.075022 
92.256569 0.059323 
92.402061 0.068328 
93.713448 0.085372 
94.207809 0.124049 
94.950371 0.084155 
95.185669 0.076661 
95.681328 0.052101 
95.8554 0.08595 
96.357742 0.104384 
98.282768 0.063092 
98.554138 0.052783 
98.904556 0.05347 
99.387863 0.053454 
101.94812 0.076642 
103.643127 0.077885 
106.812927 0.106582 
107.351448 0.066407 
107.858643 0.050892 
107.938026 0.08935 
111.0075 16.322947 
112.010803 0.510435 
112.024826 0.092123 
112.312523 0.081414 
114.542343 0.069711 
114.700455 0.050578 
115.096176 0.060984 
118.676125 0.078575 
119.512787 0.08005 
120.999832 0.0574 
121.440926 0.060336 
121.475388 0.070415 
122.833328 0.082237 
125.475533 0.081125 
126.558426 0.050778 
128.361389 0.061984 
129.018097 0.200739 
129.232086 0.120921 
129.906464 0.088189 
130.074951 0.07979 
131.954254 0.10417 
133.522324 0.073214 
136.451828 0.081073 
137.038361 0.093947 
140.00499 0.059394 
142.896591 0.054914 
143.898041 0.254646 
144.799103 0.053967 
148.50119 0.08475 
152.657028 0.111651 
153.234467 0.058798 
156.52417 0.0495 
160.340881 0.09504 
161.71196 0.063824 
163.065292 0.07613 
168.782959 0.079594 
170.509872 0.066555 
172.477829 0.075802 
182.838364 0.087197 
187.211716 0.051072 
188.66713 0.070055 
193.029465 0.055047 
END IONS

