BEGIN IONS
TITLE=Scan Number: 946
PEPMASS=453.20001
CHARGE=1+
COMPOUNDNAME=Ambiguine D isonitrile
LIBRARYQUALITY=3
SMILES=C[C@]1([C@@H]2[C@@]3([C@@]([C@]([C@@H](C2)Cl)(C=C)C)([C@H]4O[C@H]4[C@@](C5=Nc6c(c1ccc6)[C@]35O)(C)C)[N+]#[C-])O)C
INCHIKEY=BEUWKFSFCQGVEY-QJQSJIDVSA-N
INCHI=
MSLEVEL=2
SOURCE_INSTRUMENT=LC-ESI-qTof
FILENAME=f.philipwi/0_WilliamsFreshwaterCyanosStandardsConvertedTo_mzXML_v2/PW-45_P1-E-9_Ambiguine_D_isonitrile_452amu_Scan933-988_01_15560.mzXML;
SEQ=*..*
NOTES=
IONMODE=Positive
ORGANISM=GNPS-LIBRARY
NAME=Ambiguine D isonitrile M+H
SPECTRUMID=CCMSLIB00000424902
ACTIVATION=CID
INSTRUMENT=ion trap
SCANS=946
74.732628 56.0 
80.498436 100.0 
90.071465 124.0 
105.907967 60.0 
111.597374 24.0 
115.536964 52.0 
129.326813 28.0 
132.895737 88.0 
138.1716 28.0 
139.057129 108.0 
141.177307 56.0 
141.616913 48.0 
142.080002 128.0 
143.031311 36.0 
143.084686 152.0 
145.073959 88.0 
145.758057 16.0 
147.123352 88.0 
147.471466 20.0 
148.798096 32.0 
151.437775 56.0 
152.073822 36.0 
153.081635 88.0 
154.0728 220.0 
155.069107 116.0 
155.178696 36.0 
155.361374 20.0 
156.659119 28.0 
157.023315 112.0 
157.122192 40.0 
159.037598 44.0 
159.126038 116.0 
160.17305 72.0 
162.098785 64.0 
162.659241 40.0 
165.072754 224.0 
165.582642 36.0 
166.079437 92.0 
167.081741 116.0 
167.194183 20.0 
167.383804 112.0 
168.083755 208.0 
168.871521 28.0 
169.071671 68.0 
170.102463 128.0 
170.332535 36.0 
170.415741 32.0 
170.865372 68.0 
171.081619 72.0 
171.374008 36.0 
172.946365 36.0 
173.500076 32.0 
173.600845 36.0 
175.183365 32.0 
178.07692 120.0 
179.066574 780.0 
179.3759 32.0 
179.508514 36.0 
179.623566 40.0 
179.691925 28.0 
180.073242 524.0 
181.08493 340.0 
181.29332 20.0 
182.09906 476.0 
182.178406 28.0 
182.976547 80.0 
183.100159 112.0 
183.989639 44.0 
184.108627 100.0 
185.059753 68.0 
185.132706 96.0 
185.297531 28.0 
186.09668 184.0 
187.822388 68.0 
188.102036 32.0 
189.047394 88.0 
190.346741 28.0 
190.918793 32.0 
191.083588 228.0 
191.482895 44.0 
191.848679 80.0 
192.077454 1760.0 
192.297852 48.0 
192.388077 40.0 
192.569366 32.0 
192.786438 32.0 
192.932205 76.0 
193.003036 20.0 
193.081757 2996.0 
193.197906 32.0 
193.384018 20.0 
193.525864 32.0 
193.765366 72.0 
193.836349 28.0 
193.93399 48.0 
194.083771 656.0 
194.52919 44.0 
194.84938 32.0 
195.098984 860.0 
195.437073 120.0 
195.722336 32.0 
195.873962 28.0 
195.936417 40.0 
196.083374 224.0 
196.257767 60.0 
197.078812 148.0 
197.907898 40.0 
198.129135 208.0 
198.227249 36.0 
198.550476 32.0 
199.117859 32.0 
199.323669 36.0 
199.755875 32.0 
200.116394 88.0 
201.462219 28.0 
202.132294 28.0 
202.685486 24.0 
202.869156 136.0 
202.957825 24.0 
203.075897 48.0 
203.866943 24.0 
203.930664 116.0 
204.081741 296.0 
204.158295 32.0 
204.395172 32.0 
204.823715 36.0 
204.933197 32.0 
205.080597 1456.0 
205.234436 36.0 
205.426254 24.0 
205.572449 28.0 
205.984695 84.0 
206.089523 5400.0 
206.194397 32.0 
206.258484 132.0 
206.416641 44.0 
206.439316 48.0 
206.551529 40.0 
206.850479 72.0 
206.994797 120.0 
207.097229 6088.0 
207.392792 76.0 
207.455154 68.0 
207.487015 32.0 
207.661514 36.0 
207.862625 36.0 
208.103592 1416.0 
208.249802 128.0 
208.330551 36.0 
208.507446 32.0 
208.654755 32.0 
208.728409 44.0 
208.84816 32.0 
209.10257 552.0 
209.251038 28.0 
209.361252 60.0 
209.465805 80.0 
209.526688 48.0 
209.749176 48.0 
209.955048 32.0 
210.098404 528.0 
210.306168 52.0 
210.426361 32.0 
210.574326 36.0 
210.694595 24.0 
211.097076 288.0 
211.667236 40.0 
211.889862 32.0 
212.010498 72.0 
212.099228 168.0 
212.251892 28.0 
212.549164 28.0 
212.707184 40.0 
212.930359 68.0 
213.029907 452.0 
213.153656 36.0 
214.061203 96.0 
214.126495 308.0 
214.271881 88.0 
214.551895 32.0 
214.869461 28.0 
215.048355 248.0 
215.495956 32.0 
215.589539 44.0 
215.870407 32.0 
216.077591 440.0 
216.273315 36.0 
216.948776 32.0 
217.086212 1372.0 
217.293793 60.0 
217.72171 32.0 
217.860458 28.0 
218.094833 1284.0 
218.481873 28.0 
218.547821 20.0 
218.690384 64.0 
218.906067 76.0 
218.993301 32.0 
219.096039 4860.0 
219.217407 28.0 
219.283463 24.0 
219.396759 32.0 
219.547852 40.0 
219.664047 56.0 
219.755692 36.0 
219.862595 64.0 
219.921082 40.0 
219.982529 68.0 
220.088318 1012.0 
220.254425 48.0 
220.316711 72.0 
220.56752 48.0 
220.701645 40.0 
220.764771 36.0 
220.875809 72.0 
220.905289 32.0 
220.942871 60.0 
221.10936 11680.0 
221.222794 80.0 
221.393478 56.0 
221.649628 76.0 
221.869995 56.0 
222.110626 2584.0 
222.231705 68.0 
222.427307 32.0 
222.770874 60.0 
222.852692 40.0 
222.940796 28.0 
222.97467 48.0 
223.106277 300.0 
223.253754 44.0 
223.408768 52.0 
223.475464 28.0 
223.939819 68.0 
224.106522 584.0 
224.878433 40.0 
225.06633 508.0 
225.091766 128.0 
225.342651 52.0 
225.381256 28.0 
225.509766 32.0 
225.595932 28.0 
225.682098 32.0 
225.902405 56.0 
226.126205 228.0 
226.276199 112.0 
226.525574 32.0 
227.041779 1280.0 
227.136292 76.0 
227.240875 40.0 
227.389847 104.0 
227.466751 36.0 
227.549545 44.0 
227.755249 40.0 
228.082443 228.0 
228.27243 104.0 
228.878464 32.0 
229.078598 1520.0 
229.27774 32.0 
229.383911 28.0 
229.461151 52.0 
229.577042 84.0 
229.79924 32.0 
229.972122 36.0 
230.091003 1648.0 
230.243942 44.0 
230.824005 60.0 
230.859924 56.0 
231.09671 5252.0 
231.367294 36.0 
231.471054 40.0 
231.626648 80.0 
231.823227 40.0 
231.973526 72.0 
232.104477 3076.0 
232.209579 96.0 
232.273941 48.0 
232.435074 28.0 
232.668365 44.0 
232.74617 52.0 
232.897034 200.0 
233.111389 6676.0 
233.256287 32.0 
233.339752 60.0 
233.48909 24.0 
233.610031 64.0 
233.807022 112.0 
233.9375 48.0 
234.096573 2684.0 
234.264191 52.0 
234.34375 72.0 
234.434464 68.0 
234.58342 36.0 
234.7798 48.0 
234.982117 60.0 
235.093796 5136.0 
235.315689 40.0 
235.409164 36.0 
235.536484 72.0 
235.733627 36.0 
235.854294 84.0 
235.985977 36.0 
236.098877 1388.0 
236.289627 48.0 
236.436096 36.0 
236.539551 40.0 
236.690445 36.0 
236.901093 44.0 
237.112686 448.0 
237.299942 32.0 
237.398148 36.0 
237.466904 32.0 
237.702713 52.0 
237.810837 108.0 
238.017303 60.0 
238.122574 256.0 
238.301071 52.0 
238.316895 44.0 
238.357422 28.0 
238.627411 120.0 
238.752808 60.0 
238.887375 112.0 
239.059174 140.0 
239.134003 1400.0 
239.307327 36.0 
239.484863 36.0 
239.588165 136.0 
239.723312 24.0 
239.865631 48.0 
239.96846 36.0 
240.052505 412.0 
240.14267 464.0 
240.274673 60.0 
240.492096 36.0 
240.902512 32.0 
241.058945 2916.0 
241.328674 36.0 
241.365845 52.0 
241.600525 52.0 
241.788803 52.0 
241.890137 36.0 
242.075272 240.0 
242.441345 76.0 
242.546341 76.0 
242.741287 20.0 
242.888062 36.0 
243.092743 3288.0 
243.263596 92.0 
243.436981 100.0 
243.586182 72.0 
243.730225 44.0 
243.803772 64.0 
244.10527 2596.0 
244.312973 32.0 
244.448746 40.0 
244.532211 160.0 
244.697052 60.0 
244.808243 52.0 
244.913452 52.0 
245.111679 7360.0 
245.218658 152.0 
245.317474 56.0 
245.430161 24.0 
245.531845 44.0 
245.648529 48.0 
245.789795 68.0 
245.960709 40.0 
246.119019 2624.0 
246.339737 32.0 
246.429794 72.0 
246.57991 52.0 
246.690033 28.0 
246.770126 88.0 
246.875671 52.0 
246.990479 40.0 
247.109146 1328.0 
247.25235 32.0 
247.331207 60.0 
247.438751 88.0 
247.607513 36.0 
247.725906 56.0 
247.802597 52.0 
247.902954 24.0 
248.109528 1272.0 
248.398621 44.0 
248.505493 56.0 
248.702332 48.0 
248.837219 36.0 
248.917664 24.0 
249.113083 1568.0 
249.279846 52.0 
249.523544 96.0 
249.663498 44.0 
249.743011 32.0 
249.88652 196.0 
250.120834 2024.0 
250.302414 72.0 
250.389145 80.0 
250.597122 56.0 
250.678726 40.0 
250.842239 48.0 
250.917969 40.0 
251.114838 568.0 
251.327072 24.0 
251.41803 28.0 
251.610107 32.0 
251.751678 16.0 
251.913528 68.0 
252.043396 212.0 
252.05687 120.0 
252.137451 268.0 
252.28801 40.0 
253.062637 444.0 
253.145538 96.0 
253.423264 72.0 
253.605942 44.0 
253.697311 40.0 
253.91449 52.0 
254.066483 436.0 
254.266205 52.0 
254.428864 24.0 
254.759781 60.0 
254.97821 104.0 
255.088379 792.0 
255.222549 24.0 
255.422195 40.0 
255.456833 64.0 
255.709412 56.0 
255.818634 40.0 
256.106384 1368.0 
256.246735 68.0 
256.50116 40.0 
256.725128 36.0 
256.871887 40.0 
257.113434 3340.0 
257.443298 20.0 
257.705719 92.0 
257.866913 40.0 
257.938568 44.0 
258.117828 3672.0 
258.426605 80.0 
258.582642 32.0 
258.665924 44.0 
258.818268 56.0 
258.90863 36.0 
259.125122 4704.0 
259.300934 40.0 
259.401184 48.0 
259.54837 32.0 
259.753265 80.0 
259.838959 96.0 
259.910065 96.0 
260.125458 1516.0 
260.257446 32.0 
260.350006 24.0 
260.507507 32.0 
260.580444 40.0 
260.707886 56.0 
260.965424 132.0 
260.986786 32.0 
261.122925 1496.0 
261.420776 84.0 
261.49292 36.0 
261.585693 60.0 
261.944366 36.0 
261.967285 28.0 
262.124542 508.0 
262.338837 28.0 
262.452423 36.0 
262.560394 44.0 
262.80365 32.0 
262.886322 32.0 
263.126587 1796.0 
263.351624 40.0 
263.465424 24.0 
263.796631 24.0 
263.921387 76.0 
264.135651 2136.0 
264.359436 36.0 
264.511475 48.0 
264.67868 32.0 
264.926331 24.0 
265.140442 1048.0 
265.315186 60.0 
265.486877 24.0 
265.621918 40.0 
265.835327 28.0 
266.12616 240.0 
266.142517 536.0 
266.276825 24.0 
266.786743 36.0 
267.086578 1212.0 
267.211212 128.0 
267.53302 56.0 
267.783203 32.0 
267.896332 52.0 
268.100037 412.0 
268.434326 64.0 
268.530426 40.0 
268.618439 32.0 
268.943878 136.0 
269.085358 3976.0 
269.295135 72.0 
269.453583 100.0 
269.495422 24.0 
269.518372 52.0 
269.783264 44.0 
269.957306 56.0 
270.115967 2248.0 
270.229919 56.0 
270.541962 68.0 
270.67395 24.0 
270.867462 128.0 
271.120148 2404.0 
271.335052 28.0 
271.426056 60.0 
271.540161 68.0 
271.720551 40.0 
271.948761 56.0 
272.134216 4596.0 
272.39267 64.0 
272.46637 76.0 
272.553467 48.0 
272.775482 56.0 
272.870239 40.0 
273.007538 80.0 
273.138367 5144.0 
273.412537 84.0 
273.582336 48.0 
273.885376 52.0 
273.995178 44.0 
274.016754 52.0 
274.140198 1848.0 
274.256226 52.0 
274.40509 100.0 
274.751984 40.0 
274.896851 36.0 
274.991272 44.0 
275.128387 1028.0 
275.265717 24.0 
275.413788 44.0 
275.494019 28.0 
275.577026 28.0 
275.826508 36.0 
275.967712 36.0 
276.131042 1212.0 
276.281921 28.0 
276.409088 32.0 
276.546875 36.0 
276.704407 28.0 
277.134491 704.0 
277.275238 72.0 
277.480499 84.0 
277.57608 92.0 
277.756653 40.0 
277.852264 40.0 
277.998138 44.0 
278.126282 1020.0 
278.40506 64.0 
278.562103 44.0 
278.756165 96.0 
278.846985 60.0 
278.961792 56.0 
279.112213 924.0 
279.22464 28.0 
279.693512 56.0 
279.80014 36.0 
279.906769 28.0 
280.113373 284.0 
280.47226 128.0 
280.597839 100.0 
280.876556 28.0 
281.10144 1100.0 
281.259399 100.0 
281.401794 24.0 
281.583618 32.0 
281.717346 32.0 
281.785309 108.0 
281.869202 52.0 
281.88913 36.0 
281.941467 72.0 
282.112762 1600.0 
282.450714 40.0 
282.654297 24.0 
282.786133 40.0 
282.954437 24.0 
283.122803 2068.0 
283.254761 32.0 
283.351318 92.0 
283.52301 36.0 
283.673309 28.0 
283.748474 52.0 
283.893433 32.0 
284.132965 3280.0 
284.264099 44.0 
284.36084 24.0 
284.542603 44.0 
284.624237 32.0 
284.812469 40.0 
284.912659 32.0 
285.136322 4480.0 
285.315918 144.0 
285.449677 40.0 
285.555237 36.0 
285.829803 164.0 
285.931396 44.0 
286.125671 1604.0 
286.352325 76.0 
286.377289 92.0 
286.667755 44.0 
286.831818 108.0 
286.960358 36.0 
287.156158 11616.0 
287.284027 120.0 
287.37207 32.0 
287.477356 28.0 
287.51236 44.0 
287.655731 28.0 
287.754181 28.0 
287.86142 56.0 
287.935333 48.0 
288.154175 2744.0 
288.350311 52.0 
288.53772 52.0 
288.753235 64.0 
288.903198 84.0 
289.139038 2532.0 
289.316101 28.0 
289.413696 36.0 
289.489594 28.0 
289.656158 68.0 
289.762604 48.0 
289.878815 32.0 
290.144775 1768.0 
290.314453 112.0 
290.423096 32.0 
290.553467 52.0 
290.654877 72.0 
290.836029 36.0 
290.923004 24.0 
291.143707 744.0 
291.327667 116.0 
291.494568 24.0 
291.771667 32.0 
292.139893 1756.0 
292.339508 32.0 
292.697906 20.0 
293.107239 356.0 
293.396301 44.0 
293.483643 32.0 
293.614716 32.0 
293.766998 92.0 
294.132355 572.0 
294.379791 36.0 
294.467285 32.0 
294.587646 32.0 
294.73172 36.0 
294.970673 44.0 
295.110199 1020.0 
295.483276 40.0 
295.515198 28.0 
295.546112 80.0 
295.724426 144.0 
295.825226 20.0 
295.912964 28.0 
296.133362 976.0 
296.461487 32.0 
296.581116 40.0 
296.692017 44.0 
296.76886 40.0 
296.858917 40.0 
297.136627 2592.0 
297.30719 32.0 
297.384125 44.0 
297.475464 52.0 
297.582031 44.0 
297.670013 52.0 
297.877899 40.0 
298.135803 1672.0 
298.358124 36.0 
298.455505 32.0 
298.723602 28.0 
298.86908 104.0 
298.950134 40.0 
299.152008 4972.0 
299.328339 76.0 
299.645538 36.0 
299.814575 68.0 
299.971863 40.0 
300.133118 4832.0 
300.275299 32.0 
300.517639 52.0 
300.629639 112.0 
300.81955 32.0 
300.978516 40.0 
301.141907 2556.0 
301.354614 32.0 
301.454224 24.0 
301.531708 36.0 
301.685577 40.0 
301.780792 48.0 
301.958527 44.0 
302.144043 952.0 
302.307037 28.0 
302.395691 20.0 
302.554932 44.0 
302.717255 32.0 
302.794891 36.0 
303.126831 1316.0 
303.673187 32.0 
303.752716 28.0 
303.777863 44.0 
304.149719 336.0 
304.359497 32.0 
304.477661 40.0 
304.716858 24.0 
304.863403 24.0 
305.130676 2116.0 
305.384857 108.0 
305.618835 28.0 
306.123444 452.0 
306.663879 40.0 
306.946381 88.0 
307.109344 300.0 
307.440063 92.0 
307.882904 116.0 
308.111664 476.0 
308.232025 44.0 
308.366333 20.0 
308.483887 68.0 
308.69104 40.0 
308.82547 56.0 
309.127106 1820.0 
309.419464 32.0 
309.673859 76.0 
309.871063 60.0 
309.997986 80.0 
310.124084 888.0 
310.294678 40.0 
310.564209 28.0 
310.665344 44.0 
310.825287 68.0 
311.140015 1208.0 
311.261078 112.0 
311.487274 36.0 
311.57605 32.0 
311.756104 28.0 
311.857422 44.0 
312.142609 1016.0 
312.523834 72.0 
312.652466 48.0 
312.676514 28.0 
312.770874 92.0 
312.889069 56.0 
313.004578 32.0 
313.133575 4612.0 
313.469238 28.0 
313.705139 40.0 
313.82486 64.0 
313.952209 36.0 
313.985779 32.0 
314.146454 1768.0 
314.322906 52.0 
314.718719 68.0 
314.953644 68.0 
315.15271 3424.0 
315.356812 32.0 
315.457306 32.0 
315.530273 76.0 
315.641602 52.0 
315.797028 32.0 
315.958496 32.0 
316.158478 1316.0 
316.557861 36.0 
316.977661 44.0 
317.136292 1784.0 
317.42041 44.0 
317.533997 28.0 
317.66748 48.0 
317.753357 104.0 
318.020172 80.0 
318.138702 3220.0 
318.367737 68.0 
318.477478 36.0 
318.645599 36.0 
318.739166 116.0 
318.97821 48.0 
319.142273 1428.0 
319.579346 36.0 
319.671906 40.0 
319.855438 28.0 
320.123535 280.0 
320.524139 32.0 
320.665375 28.0 
320.825195 56.0 
321.116852 1568.0 
321.27063 84.0 
321.51062 24.0 
321.597778 32.0 
321.769409 44.0 
321.962799 44.0 
322.115784 600.0 
322.251923 112.0 
322.414215 76.0 
322.597382 20.0 
322.828674 40.0 
322.986755 64.0 
323.131805 5024.0 
323.467194 60.0 
323.566345 60.0 
323.743286 52.0 
323.906189 40.0 
324.02243 84.0 
324.143372 1128.0 
324.313202 24.0 
324.346161 52.0 
324.695953 44.0 
324.799347 140.0 
325.133453 2152.0 
325.351013 76.0 
325.567566 24.0 
325.851349 32.0 
326.15155 412.0 
326.373474 28.0 
326.533936 56.0 
326.650116 32.0 
326.732208 108.0 
326.969269 64.0 
327.1521 4312.0 
327.515625 60.0 
327.613098 40.0 
327.755768 84.0 
327.949982 40.0 
328.119049 7652.0 
328.422424 64.0 
328.776154 72.0 
328.936371 100.0 
329.155212 864.0 
329.37616 32.0 
329.633881 44.0 
329.744781 28.0 
329.908539 28.0 
330.113342 2572.0 
330.441345 32.0 
330.608185 40.0 
330.691315 32.0 
331.155945 504.0 
331.412354 76.0 
331.752014 32.0 
331.902985 40.0 
332.154907 368.0 
332.376312 128.0 
332.47226 40.0 
332.553619 56.0 
332.890808 32.0 
333.159821 396.0 
333.504425 120.0 
333.600647 36.0 
333.775299 64.0 
333.973328 24.0 
334.129791 432.0 
334.742615 28.0 
334.952576 36.0 
335.137085 1244.0 
335.582855 52.0 
335.719574 48.0 
336.136475 732.0 
336.30722 32.0 
336.482605 40.0 
336.634613 16.0 
336.88028 28.0 
337.137421 728.0 
337.313324 48.0 
337.458496 20.0 
337.734924 28.0 
337.934082 28.0 
338.016113 64.0 
338.164429 328.0 
338.402985 44.0 
338.543701 40.0 
339.168854 340.0 
339.295349 76.0 
339.41217 32.0 
339.776337 44.0 
340.161316 544.0 
340.439941 44.0 
341.163788 880.0 
341.541138 36.0 
341.670715 52.0 
342.031494 92.0 
342.153442 636.0 
343.0271 36.0 
343.154114 568.0 
343.486389 36.0 
343.771271 72.0 
343.905731 32.0 
344.170776 240.0 
344.622772 32.0 
344.729279 24.0 
344.998169 28.0 
345.119446 708.0 
345.747864 36.0 
346.168945 380.0 
346.411926 64.0 
346.589935 68.0 
347.017273 52.0 
347.130707 320.0 
347.551849 56.0 
347.724182 48.0 
347.927246 48.0 
348.119904 420.0 
348.300934 24.0 
348.454529 44.0 
349.118591 1244.0 
349.408173 28.0 
349.778534 72.0 
350.004211 48.0 
350.125427 356.0 
350.362061 52.0 
350.45752 36.0 
350.692535 72.0 
350.817993 40.0 
350.94696 52.0 
351.126099 1036.0 
351.45166 32.0 
351.890961 20.0 
352.138397 332.0 
352.357483 36.0 
352.477142 32.0 
352.579285 32.0 
352.752441 48.0 
352.848236 24.0 
352.932068 60.0 
353.121582 1020.0 
353.197296 804.0 
353.369293 32.0 
353.626984 44.0 
353.833038 64.0 
353.998688 32.0 
354.121674 204.0 
354.191254 276.0 
354.598602 72.0 
354.754669 20.0 
354.850708 24.0 
355.178955 580.0 
355.451355 20.0 
355.853607 52.0 
356.18512 1012.0 
356.37735 20.0 
356.586761 40.0 
356.774567 40.0 
356.858856 36.0 
357.177246 308.0 
357.376862 40.0 
357.50943 44.0 
358.072815 44.0 
358.184692 236.0 
358.365692 36.0 
358.498444 36.0 
359.153839 120.0 
359.720642 112.0 
360.167114 124.0 
361.118256 48.0 
361.546387 36.0 
362.123657 176.0 
363.014465 88.0 
363.135101 1304.0 
363.536896 80.0 
364.149506 328.0 
364.655914 32.0 
364.960297 36.0 
365.134979 904.0 
365.411011 100.0 
365.589539 68.0 
365.959564 24.0 
366.16861 644.0 
366.456635 36.0 
366.552643 52.0 
366.846222 48.0 
367.166992 332.0 
367.508331 32.0 
367.876556 32.0 
368.108917 40.0 
368.194519 64.0 
368.280151 184.0 
368.573792 28.0 
368.720673 100.0 
368.843079 28.0 
369.047394 64.0 
369.171967 928.0 
369.36969 28.0 
369.59024 20.0 
369.676025 56.0 
370.185516 240.0 
370.779907 52.0 
371.217926 1580.0 
371.418457 40.0 
371.788239 84.0 
371.959198 44.0 
372.220093 288.0 
372.967987 28.0 
373.209595 96.0 
373.633057 24.0 
373.928833 44.0 
374.158386 160.0 
374.533051 52.0 
375.13147 92.0 
375.535034 24.0 
376.027252 32.0 
376.135803 436.0 
376.893005 52.0 
377.131805 380.0 
377.363434 36.0 
377.598724 28.0 
378.019989 148.0 
378.489502 156.0 
378.900482 24.0 
379.130737 184.0 
379.334869 36.0 
379.483887 132.0 
380.175598 288.0 
380.614716 44.0 
380.967987 40.0 
381.199005 1420.0 
381.423492 44.0 
381.560455 84.0 
381.784607 60.0 
381.884277 40.0 
382.015717 64.0 
382.198029 248.0 
382.307922 36.0 
382.594635 40.0 
383.056122 28.0 
383.173279 152.0 
383.368073 36.0 
383.705139 48.0 
384.187256 832.0 
384.404694 168.0 
385.191254 680.0 
385.424408 32.0 
385.755676 20.0 
386.006104 28.0 
386.190704 244.0 
386.419495 32.0 
386.996124 28.0 
387.121552 112.0 
388.125549 68.0 
388.288818 100.0 
389.202972 60.0 
389.69693 28.0 
390.181244 184.0 
391.16568 308.0 
391.410187 108.0 
391.662445 36.0 
391.813843 28.0 
391.940033 20.0 
392.028381 88.0 
392.156342 292.0 
392.293457 28.0 
392.457611 80.0 
393.164337 272.0 
393.342102 28.0 
394.162994 80.0 
394.442749 24.0 
395.165497 320.0 
395.266083 216.0 
395.456207 28.0 
395.887329 40.0 
396.064911 92.0 
397.177246 192.0 
397.309113 72.0 
397.446747 120.0 
397.753937 40.0 
398.071838 44.0 
398.338959 32.0 
398.933899 152.0 
399.207794 4604.0 
399.370148 24.0 
399.519836 32.0 
399.650452 32.0 
399.943604 44.0 
400.2117 1556.0 
400.57489 56.0 
400.862 120.0 
401.213043 252.0 
402.231293 80.0 
403.085754 108.0 
403.175354 88.0 
403.636261 48.0 
403.949799 48.0 
404.648651 64.0 
404.879486 20.0 
405.133057 120.0 
405.508209 28.0 
405.829193 56.0 
406.08606 64.0 
406.187775 120.0 
406.870026 28.0 
407.190094 356.0 
407.796326 68.0 
408.207245 140.0 
408.620575 44.0 
409.193604 160.0 
409.703705 72.0 
410.199585 116.0 
411.175934 60.0 
414.556488 104.0 
416.674744 40.0 
417.173859 780.0 
417.950867 44.0 
418.181671 248.0 
419.033234 32.0 
419.189819 164.0 
419.500305 112.0 
419.764282 116.0 
420.156738 628.0 
420.339111 44.0 
421.032074 20.0 
421.175964 240.0 
421.699402 24.0 
421.948151 40.0 
422.173248 192.0 
422.367279 128.0 
422.458984 128.0 
422.812805 36.0 
423.179901 68.0 
423.822693 96.0 
423.967041 40.0 
426.270111 104.0 
428.415009 80.0 
431.587433 40.0 
432.024567 104.0 
432.700531 32.0 
432.920288 28.0 
433.071899 40.0 
433.333679 108.0 
433.666107 40.0 
433.794708 60.0 
433.9151 36.0 
434.049286 56.0 
434.179443 36.0 
434.508148 76.0 
434.610809 104.0 
434.696899 72.0 
434.934387 112.0 
435.186249 36976.0 
435.435822 60.0 
435.641449 116.0 
435.878571 148.0 
436.024811 76.0 
436.188507 9632.0 
436.512939 36.0 
436.660126 40.0 
436.74942 44.0 
436.870819 32.0 
436.952911 120.0 
437.063141 100.0 
437.183777 12156.0 
437.49762 36.0 
437.735626 68.0 
437.793976 64.0 
437.894623 80.0 
437.973328 36.0 
438.184906 2252.0 
438.411041 40.0 
438.656281 180.0 
438.843414 44.0 
439.072449 56.0 
439.180054 276.0 
439.390015 72.0 
439.627014 88.0 
439.988525 24.0 
440.144531 84.0 
440.345154 32.0 
440.693024 36.0 
441.054413 32.0 
441.148132 36.0 
441.27533 32.0 
442.022156 48.0 
442.461182 32.0 
442.809875 124.0 
443.400299 40.0 
443.977661 40.0 
444.246338 64.0 
444.447876 24.0 
444.716705 40.0 
444.911102 104.0 
445.671631 72.0 
445.819672 44.0 
446.23703 108.0 
446.452484 32.0 
447.577179 80.0 
448.835449 64.0 
449.00174 32.0 
449.136841 36.0 
449.32373 24.0 
449.677368 44.0 
450.069458 52.0 
450.197144 76.0 
452.180481 48.0 
452.520508 56.0 
452.981689 28.0 
453.197662 1352.0 
453.404633 24.0 
453.497375 52.0 
453.72818 32.0 
453.857513 48.0 
453.999786 36.0 
454.192596 400.0 
454.69751 68.0 
454.815094 24.0 
455.185669 428.0 
455.916901 24.0 
456.176453 140.0 
456.747559 52.0 
457.101837 72.0 
459.17572 100.0 
460.187073 52.0 
460.925812 84.0 
461.271423 48.0 
462.076111 36.0 
464.408478 124.0 
465.948303 100.0 
467.063538 60.0 
468.042145 140.0 
469.961029 32.0 
471.233246 28.0 
471.357788 140.0 
471.676147 56.0 
471.814606 148.0 
472.174683 120.0 
473.227966 128.0 
478.442383 24.0 
483.573181 32.0 
484.105988 120.0 
484.400574 148.0 
487.801727 100.0 
487.956604 36.0 
488.280518 72.0 
489.210602 40.0 
490.438019 108.0 
492.543671 52.0 
493.625244 68.0 
494.001923 76.0 
494.101105 24.0 
496.569672 48.0 
496.99588 36.0 
497.834686 28.0 
507.998535 108.0 
508.214081 76.0 
509.393127 224.0 
509.954376 28.0 
511.472046 160.0 
515.91687 44.0 
518.352173 104.0 
522.437988 140.0 
522.875549 96.0 
524.100647 116.0 
524.246643 180.0 
525.122681 120.0 
527.374695 92.0 
528.912842 124.0 
534.778442 96.0 
535.559998 124.0 
535.69281 156.0 
536.22406 124.0 
538.070801 32.0 
538.263 116.0 
538.60321 80.0 
539.817017 104.0 
540.66156 132.0 
548.724976 84.0 
550.907227 128.0 
552.809021 96.0 
557.555237 68.0 
562.352051 60.0 
562.654419 24.0 
564.667236 52.0 
569.098999 144.0 
570.331421 44.0 
570.696838 76.0 
571.031921 44.0 
574.292725 84.0 
581.882935 132.0 
582.252075 112.0 
583.221497 108.0 
585.548401 24.0 
587.570801 84.0 
588.390015 24.0 
594.125061 76.0 
594.327087 36.0 
595.290955 92.0 
598.09375 56.0 
598.951477 120.0 
600.934448 100.0 
601.693787 104.0 
606.887146 60.0 
607.389771 120.0 
611.481262 76.0 
611.607361 100.0 
615.412537 44.0 
624.50708 116.0 
624.682312 28.0 
626.24469 108.0 
627.106384 88.0 
628.432007 188.0 
637.927795 160.0 
649.117798 72.0 
649.491394 80.0 
650.173889 84.0 
654.211182 136.0 
656.43042 80.0 
664.309692 40.0 
673.079102 120.0 
673.294067 44.0 
681.489929 124.0 
683.571594 100.0 
685.806702 24.0 
692.299133 124.0 
692.601074 28.0 
692.886292 124.0 
694.212463 88.0 
695.876221 56.0 
706.17157 96.0 
713.372253 92.0 
718.044922 100.0 
718.9505 96.0 
723.504211 64.0 
726.044067 156.0 
733.448669 84.0 
740.266296 68.0 
741.741272 116.0 
746.331604 120.0 
752.404236 112.0 
754.924194 80.0 
765.398987 124.0 
769.425171 16.0 
776.478699 56.0 
779.287781 112.0 
780.658569 164.0 
787.047791 24.0 
797.508301 108.0 
799.525757 152.0 
805.810608 112.0 
816.048645 100.0 
825.270508 32.0 
826.259644 60.0 
836.239258 56.0 
837.013611 64.0 
840.096313 28.0 
855.147339 80.0 
855.986389 44.0 
856.583252 52.0 
860.580444 148.0 
862.376587 140.0 
866.687439 96.0 
867.457031 68.0 
872.985596 128.0 
918.039124 80.0 
974.268066 72.0 
1057.22168 84.0 
1085.282959 44.0 
1092.160767 112.0 
1102.550049 28.0 
1208.903931 44.0 
END IONS

