BEGIN IONS
PEPMASS=338.16
CHARGE=1+
COMPOUNDNAME=MYCOPHENOLIC ACID
LIBRARYQUALITY=3
SMILES=N/A
INCHIKEY=HPNSFSBZBAHARI-RUDMXATFSA-N
INCHI=InChI=1S/C17H20O6/c1-9(5-7-13(18)19)4-6-11-15(20)14-12(8-23-17(14)21)10(2)16(11)22-3/h4,20H,5-8H2,1-3H3,(H,18,19)/b9-4+
MSLEVEL=2
SOURCE_INSTRUMENT=N/A-ESI-QFT
FILENAME=library_mgf.mgf
SEQ=*..*
IONMODE=positive
ORGANISM=MONA
NAME=MYCOPHENOLIC ACID [M+NH4]+
PI=MoNA
DATACOLLECTOR=MoNA:VF-NPL-QEHF011302
PUBMED=N/A
SUBMITUSER=mwang87
TAGS=
SPECTRUMID=CCMSLIB00004702365
SCANS=11302
50.026932 0.009294 
50.901699 0.011963 
52.011665 0.011159 
52.617256 0.009966 
52.929985 0.006822 
53.085304 0.007818 
53.294418 0.008296 
53.569538 0.008885 
53.642456 0.010936 
53.682377 0.006624 
54.403244 0.011198 
54.928074 0.007908 
55.018589 0.144868 
55.386158 0.010947 
55.52858 0.01041 
57.349464 0.00936 
58.156708 0.011182 
58.524029 0.005682 
58.621269 0.008948 
59.094753 0.006147 
59.150253 0.007468 
60.038818 0.005732 
61.388496 0.007463 
61.560333 0.006576 
62.233185 0.010463 
62.409065 0.006887 
62.775578 0.007545 
64.061661 0.007038 
64.636497 0.008273 
64.671623 0.005394 
64.676949 0.01027 
64.715218 0.008578 
64.782974 0.00742 
65.39418 0.006984 
65.671822 0.008425 
66.348541 0.009822 
66.530457 0.010993 
66.770508 0.009033 
66.830139 0.010176 
67.08136 0.006173 
67.438309 0.006869 
67.700554 0.00804 
67.923607 0.009728 
68.528351 0.007167 
68.889526 0.005508 
69.292389 0.00674 
70.55854 0.009469 
70.670662 0.008725 
71.378929 0.007844 
71.517799 0.008559 
71.763474 0.010895 
71.786247 0.009737 
71.837784 0.006194 
72.63559 0.00981 
72.661636 0.009078 
72.754211 0.008991 
72.862335 0.009662 
73.878273 0.00856 
74.615257 0.01132 
74.618935 0.007015 
74.692314 0.01073 
75.89518 0.008651 
77.005165 0.009439 
77.242012 0.005704 
77.907547 0.017054 
78.261208 0.008053 
78.398193 0.008211 
78.659782 0.010757 
78.713356 0.011601 
79.226036 0.00696 
79.629066 0.007606 
81.070427 0.958899 
82.008476 0.009959 
82.073746 0.074073 
82.211159 0.008117 
82.227455 0.006603 
82.351799 0.007374 
82.370544 0.009718 
82.755737 0.006828 
82.800682 0.006892 
82.805061 0.009554 
82.948875 0.011186 
83.389549 0.006242 
84.01371 0.008678 
84.751099 0.01066 
84.797974 0.009277 
85.491455 0.009161 
86.933861 0.006272 
87.060509 0.008905 
87.27343 0.007256 
87.795395 0.009962 
88.167511 0.008305 
88.780899 0.008653 
89.140137 0.006649 
90.508514 0.009555 
90.902885 0.005978 
91.355934 0.011622 
91.715744 0.00886 
92.62738 0.008435 
92.734993 0.007238 
93.581062 0.012704 
94.717712 0.012046 
94.852974 0.005818 
94.908165 0.010035 
95.086044 0.009585 
96.048698 0.00805 
96.88195 0.010047 
97.031189 0.008292 
97.226746 0.009457 
97.74511 0.007259 
98.151161 0.011148 
98.75811 0.007707 
100.142517 0.00998 
100.695923 0.007364 
103.002441 0.008926 
103.031052 0.010986 
103.20697 0.008031 
103.90065 0.005916 
104.896042 0.00751 
105.491531 0.011026 
106.527214 0.008358 
107.805771 0.006995 
108.481026 0.010947 
109.06498 0.523404 
109.301338 0.007953 
110.068565 0.020137 
111.021072 0.007313 
112.468124 0.011508 
112.894043 0.007964 
115.960983 0.007486 
116.116699 0.007577 
117.143753 0.007067 
119.90303 0.011588 
120.737724 0.008534 
121.165871 0.006957 
124.006149 0.008043 
125.932335 0.008485 
126.994278 0.010192 
127.075371 0.147814 
128.245743 0.005952 
129.023041 0.009069 
129.597488 0.009109 
130.238495 0.007204 
132.704041 0.011223 
133.185135 0.010164 
134.222946 0.006951 
138.428619 0.007927 
138.725449 0.008806 
139.792862 0.007708 
141.325821 0.007951 
142.147491 0.006523 
142.42514 0.009158 
142.692368 0.007371 
143.66655 0.012267 
144.168182 0.010413 
144.518234 0.008931 
145.593658 0.007977 
145.984665 0.007379 
147.974075 0.009666 
148.639313 0.011013 
153.416199 0.008538 
154.916687 0.007785 
158.553467 0.006355 
158.936615 0.008937 
159.044128 0.81372 
160.04747 0.437114 
160.246811 0.011225 
160.67662 0.01056 
162.691299 0.009999 
163.752151 0.007416 
163.855865 0.008534 
164.413376 0.009031 
168.72084 0.008281 
168.962112 0.008497 
170.374512 0.00835 
171.126373 0.010086 
171.50209 0.009881 
172.177963 0.006722 
172.398621 0.0203 
172.620773 0.008286 
175.075562 0.023376 
177.032959 0.009414 
177.054581 1.286981 
177.746567 0.010437 
177.939011 0.006555 
178.057892 0.81374 
178.682892 0.009214 
179.060669 0.010653 
180.136246 0.012839 
180.334778 0.006772 
181.152878 0.006135 
181.501373 0.008865 
182.276016 0.008067 
183.184235 0.009515 
184.368546 0.009866 
184.413696 0.006442 
185.877594 0.006843 
186.100449 0.01027 
190.483704 0.008684 
192.544556 0.009329 
193.049072 0.009455 
195.065155 5.370768 
196.068466 1.641785 
196.755554 0.010984 
197.070206 0.16716 
199.671356 0.010773 
199.949875 0.006711 
205.04747 0.008062 
206.506424 0.011612 
207.04689 0.075791 
207.065125 100.0 
208.068451 37.686867 
209.070404 8.377999 
209.25087 0.007637 
210.07309 0.663802 
214.749084 0.129446 
214.759018 0.387825 
214.762604 0.353647 
215.106766 0.140353 
216.110718 0.037357 
217.707428 0.008625 
219.065109 0.545832 
220.068527 0.148241 
220.866806 0.007584 
221.081085 0.134538 
221.407516 0.011153 
222.083984 0.124066 
223.059967 0.963545 
223.086731 0.015468 
224.063416 0.205346 
230.256271 0.008932 
230.689331 0.00878 
233.081467 0.009165 
235.043625 0.034367 
235.809067 0.010669 
236.099762 0.00723 
238.595474 0.012981 
239.091537 0.012973 
239.105606 0.009659 
240.110382 0.012259 
240.34491 0.009005 
241.121857 0.012035 
247.097137 0.038711 
249.905502 0.008845 
252.156387 0.008294 
256.882996 0.008205 
258.36319 0.009653 
259.096527 0.738629 
260.099915 0.339214 
261.112274 0.413877 
262.115417 0.156281 
263.11908 0.012458 
265.115143 0.006613 
267.17981 0.009146 
267.494995 0.010428 
268.85434 0.011945 
269.823822 0.010609 
270.596649 0.007402 
271.805725 0.009578 
273.155457 0.009279 
273.318176 0.008773 
275.127533 9.148358 
276.130859 4.455435 
277.133331 1.309148 
278.13501 0.009551 
278.218048 0.008661 
285.111725 3.20388 
286.115173 1.849587 
287.117737 0.50797 
288.03598 0.008632 
295.099976 0.008483 
299.876587 0.007017 
301.106995 0.087923 
302.110809 0.008593 
303.122314 3.386955 
304.108795 0.026206 
305.128174 0.673791 
305.714447 0.008064 
305.806458 0.009161 
306.413269 0.009704 
310.518219 0.008397 
314.699371 0.008961 
321.132935 2.348977 
322.136292 1.349429 
323.138428 0.398362 
339.269226 0.010596 
341.669586 0.014288 
344.387878 0.009685 
347.908539 0.008633 
350.509827 0.011086 
350.630951 0.010125 
351.257568 0.0104 
353.908295 0.009862 
357.738281 0.006232 
360.511719 0.007587 
END IONS

