BEGIN IONS
PEPMASS=268.104
CHARGE=1+
COMPOUNDNAME=Massbank:CE000144 Adenosine
LIBRARYQUALITY=3
SMILES=C1=NC2=C(C(=N1)N)N=CN2[C@H]3[C@@H]([C@@H]([C@H](O3)CO)O)O
INCHIKEY=OIRDTQYFTABQOQ-KQYNXXCUSA-N
INCHI=1S/C10H13N5O4/c11-8-5-9(13-2-12-8)15(3-14-5)10-7(18)6(17)4(1-16)19-10/h2-4,6-7,10,16-18H,1H2,(H2,11,12,13)/t4-,6-,7-,10-/m1/s1
MSLEVEL=2
SOURCE_INSTRUMENT=ESI-LC-ESI-ITFT
FILENAME=Massbank_ESI_positive_8_1_2014_peaks.mgf
SEQ=*..*
IONMODE=Positive
ORGANISM=MASSBANK
NAME=Massbank:CE000144 Adenosine [M+H]+
PI=Putative Massbank Match
DATACOLLECTOR=Massbank
PUBMED=N/A
SUBMITUSER=mwang87
TAGS=
SPECTRUMID=CCMSLIB00000205728
SCANS=988
78.503319 1172.272217 
78.617569 1061.225098 
79.351158 1092.155518 
81.383873 1380.918091 
87.872307 1041.417847 
88.130119 1177.787598 
88.229218 1138.982056 
93.804955 1139.412109 
95.587852 1245.558716 
100.254257 1107.330933 
100.342926 1121.786743 
108.158028 1140.220947 
112.32618 1066.002197 
135.887421 1200.544312 
135.992493 2022.306763 
136.038788 1320.105835 
136.061356 305662.5 
136.076797 1969.240845 
136.083405 2154.583496 
140.0466 1207.437134 
179.409378 1304.493408 
179.904388 1295.932739 
188.396851 1232.50293 
214.535934 1160.786987 
219.079865 17817.638672 
220.565872 1356.474609 
237.090454 141373.65625 
252.15506 1320.529785 
END IONS

