BEGIN IONS
PEPMASS=995.556
CHARGE=1+
COMPOUNDNAME=Massbank:EA299205 Microcystin-LR|(5R,8R,11R,12S,15S,18S,19S,22R)-15-{3-[(Diaminomethylene)amino]propyl}-8-isobutyl-18-[(1E,3E,5S,6S)-6-methoxy-3,5-dimethyl-7-phenyl-1,3-heptadien-1-yl]-1,5,12,19-tetramethyl-2-methylene
LIBRARYQUALITY=3
SMILES=CC1C(NC(=O)C(NC(=O)C(C(NC(=O)C(NC(=O)C(NC(=O)C(=C)N(C(=O)CCC(NC1=O)C(=O)O)C)C)CC(C)C)C(=O)O)C)CCCN=C(N)N)C=CC(=CC(C)C(CC2=CC=CC=C2)OC)C
INCHIKEY=ZYZCGGRZINLQBL-UHFFFAOYSA-N
INCHI=1S/C49H74N10O12/c1-26(2)23-37-46(66)58-40(48(69)70)30(6)42(62)55-35(17-14-22-52-49(50)51)45(65)54-34(19-18-27(3)24-28(4)38(71-10)25-33-15-12-11-13-16-33)29(5)41(61)56-36(47(67)68)20-21-39(60)59(9)32(8)44(64)53-31(7)43(63)57-37/h11-13,15-16,18-19,24,26,28-31,34-38,40H,8,14,17,20-23,25H2,1-7,9-10H3,(H,53,64)(H,54,65)(H,55,62)(H,56,61)(H,57,63)(H,58,66)(H,67,68)(H,69,70)(H4,50,51,52)/b19-18+,27-24+/t28-,29-,30-,31+,34-,35-,36+,37-,38-,40+/m0/s1
MSLEVEL=2
SOURCE_INSTRUMENT=ESI-LC-ESI-ITFT
FILENAME=Massbank_ESI_positive_8_1_2014_peaks.mgf
SEQ=*..*
IONMODE=Positive
ORGANISM=MASSBANK
NAME=Massbank:EA299205 Microcystin-LR|(5R,8R,11R,12S,15S,18S,19S,22R)-15-{3-[(Diaminomethylene)amino]propyl}-8-isobutyl-18-[(1E,3E,5S,6S)-6-methoxy-3,5-dimethyl-7-phenyl-1,3-heptadien-1-yl]-1,5,12,19-tetramethyl-2-methylene [M+H]+
PI=Putative Massbank Match
DATACOLLECTOR=Massbank
PUBMED=N/A
SUBMITUSER=mwang87
TAGS=
SPECTRUMID=CCMSLIB00000213060
SCANS=6114
70.0651 44989.4 
79.0542 3300.0 
82.0653 2393.3 
84.0443 17483.6 
86.0964 16296.5 
91.0541 9912.0 
93.0697 14112.7 
95.0604 3472.3 
97.076 4561.3 
98.0598 5919.8 
99.0916 4169.0 
103.0541 40563.9 
105.0697 49365.8 
107.0854 66711.8 
112.0868 23692.2 
113.0714 3664.8 
114.1024 6950.3 
115.0542 6406.1 
115.0865 17464.7 
117.0698 26584.5 
127.0864 99830.1 
130.0496 3880.4 
130.0975 3642.8 
133.1011 3265.1 
135.0803 138460.7 
135.1166 46551.2 
138.0546 5577.9 
140.0815 9745.6 
141.0658 14580.3 
149.0709 3423.9 
153.1021 3483.8 
155.081 16368.1 
157.1079 9889.7 
167.0816 13640.9 
174.1342 6181.5 
182.1028 5008.6 
195.0766 6863.9 
200.114 9581.5 
201.0982 4358.2 
213.0867 23089.6 
239.0667 6358.2 
END IONS

