BEGIN IONS
PEPMASS=619.329
CHARGE=1+
COMPOUNDNAME=Astaxanthin
LIBRARYQUALITY=3
SMILES=N/A
INCHIKEY=MQZIGYBFDRPAKN-QISQUURKSA-N
INCHI=InChI=1S/C40H52O4/c1-27(17-13-19-29(3)21-23-33-31(5)37(43)35(41)25-39(33,7)8)15-11-12-16-28(2)18-14-20-30(4)22-24-34-32(6)38(44)36(42)26-40(34,9)10/h11-24,35-36,41-42H,25-26H2,1-10H3/b12-11+,17-13+,18-14+,23-21+,24-22+,27-15+,28-16+,29-19+,30-20+
MSLEVEL=2
SOURCE_INSTRUMENT=N/A-Linear Ion Trap
FILENAME=library_mgf.mgf
SEQ=*..*
IONMODE=positive
ORGANISM=MONA
NAME=Astaxanthin M+Na
PI=MoNA
DATACOLLECTOR=MoNA:VF-NPL-LTQ006224
PUBMED=N/A
SUBMITUSER=mwang87
TAGS=
SPECTRUMID=CCMSLIB00004689720
SCANS=5341
225.029999 2.489682 
374.170013 0.642292 
399.109985 13.566964 
415.25 7.554551 
428.23999 1.573242 
456.149994 1.111314 
461.269989 2.558989 
465.230011 5.842706 
473.220001 1.220214 
482.269989 3.94413 
499.299988 0.616712 
509.369995 3.720279 
513.219971 39.325535 
527.22998 100.0 
562.340027 1.981268 
565.390015 1.899178 
575.320007 27.61758 
583.340027 6.417052 
600.22998 23.320023 
END IONS

