BEGIN IONS
PEPMASS=276.0
CHARGE=1+
COMPOUNDNAME=Massbank:KO002829 Eserine|Physostigmine
LIBRARYQUALITY=3
SMILES=CNC(=O)Oc(c3)cc(c(c3)1)C(C)(C2)C(N(C)C2)N(C)1
INCHIKEY=PIJVFDBKTWXHHD-UHFFFAOYSA-N
INCHI=1S/C15H21N3O2/c1-15-7-8-17(3)13(15)18(4)12-6-5-10(9-11(12)15)20-14(19)16-2/h5-6,9,13H,7-8H2,1-4H3,(H,16,19)/t13-,15+/m1/s1
MSLEVEL=2
SOURCE_INSTRUMENT=ESI-LC-ESI-QQ
FILENAME=Massbank_ESI_positive_8_1_2014_peaks.mgf
SEQ=*..*
IONMODE=Positive
ORGANISM=MASSBANK
NAME=Massbank:KO002829 Eserine|Physostigmine [M+H]+
PI=Putative Massbank Match
DATACOLLECTOR=Massbank
PUBMED=N/A
SUBMITUSER=mwang87
TAGS=
SPECTRUMID=CCMSLIB00000218159
SCANS=8631
43.1 29703.0 
44.1 1861388.0 
55.2 64356.5 
56.2 227723.0 
57.3 24752.5 
58.1 183168.5 
66.6 14851.5 
77.0 138614.0 
78.9 49505.0 
81.2 29703.0 
82.4 19802.0 
91.2 297030.0 
91.9 24752.5 
93.1 178218.0 
93.9 39604.0 
95.2 34653.5 
102.0 19802.0 
102.9 168317.0 
105.0 168317.0 
107.0 178218.0 
109.2 19802.0 
111.3 14851.5 
115.4 64356.5 
117.4 103960.5 
118.0 123762.5 
119.3 242574.5 
121.1 678218.5 
126.8 64356.5 
130.3 59406.0 
131.1 212871.5 
132.7 69307.0 
134.2 1242575.5 
143.8 69307.0 
144.1 252475.5 
145.1 519802.5 
146.2 2405943.0 
147.1 15490114.5 
148.0 59406.0 
158.3 108911.0 
159.0 103960.5 
160.2 2074259.5 
161.3 4792084.0 
162.3 7014858.5 
172.1 455446.0 
173.2 1004951.5 
174.1 183168.5 
176.3 871288.0 
187.4 39604.0 
188.3 366337.0 
END IONS

