BEGIN IONS
PEPMASS=1293.59
CHARGE=1+
COMPOUNDNAME=DACTINOMYCIN
LIBRARYQUALITY=3
SMILES=N/A
INCHIKEY=RJURFGZVJUQBHK-IIXSONLDSA-N
INCHI=InChI=1S/C62H86N12O16/c1-27(2)42-59(84)73-23-17-19-36(73)57(82)69(13)25-38(75)71(15)48(29(5)6)61(86)88-33(11)44(55(80)65-42)67-53(78)35-22-21-31(9)51-46(35)64-47-40(41(63)50(77)32(10)52(47)90-51)54(79)68-45-34(12)89-62(87)49(30(7)8)72(16)39(76)26-70(14)58(83)37-20-18-24-74(37)60(85)43(28(3)4)66-56(45)81/h21-22,27-30,33-34,36-37,42-45,48-49H,17-20,23-26,63H2,1-16H3,(H,65,80)(H,66,81)(H,67,78)(H,68,79)/t33-,34-,36+,37+,42-,43-,44+,45+,48+,49+/m1/s1
MSLEVEL=2
SOURCE_INSTRUMENT=N/A-ESI-QFT
FILENAME=library_mgf.mgf
SEQ=*..*
IONMODE=positive
ORGANISM=MONA
NAME=DACTINOMYCIN [M+K]+
PI=MoNA
DATACOLLECTOR=MoNA:VF-NPL-QEHF002896
PUBMED=N/A
SUBMITUSER=mwang87
TAGS=
SPECTRUMID=CCMSLIB00004693959
SCANS=2896
89.809547 0.035846 
89.87294 0.017119 
89.949501 0.012964 
90.091789 0.051364 
91.057846 2.351507 
91.15432 0.033202 
92.057274 0.011079 
92.179642 0.037612 
93.643097 0.020225 
93.737656 0.010916 
93.945091 0.025382 
95.951645 0.01913 
96.79113 0.037242 
98.060394 0.448697 
98.09684 0.794966 
98.7799 0.024321 
99.05497 0.023631 
99.063576 0.016223 
99.336617 0.016212 
100.039719 21.860704 
100.043625 0.133241 
101.036835 0.014049 
101.043007 1.63165 
101.508018 0.051159 
102.043839 0.024341 
102.250961 0.013337 
103.754227 0.044782 
105.073227 0.056795 
106.115196 0.016465 
106.737801 0.032585 
107.030212 0.014693 
107.641563 0.0177 
108.262848 0.034158 
108.375648 0.023216 
108.557602 0.010921 
109.454071 0.033775 
109.629463 0.034153 
109.714622 0.026196 
110.033669 0.010142 
110.096626 0.118234 
110.521935 0.052515 
111.004478 0.018204 
111.456245 0.039492 
112.112312 1.398048 
112.795784 0.01784 
113.1157 0.015326 
114.05513 0.01464 
114.09153 5.188023 
115.094887 0.196693 
116.071297 0.016022 
117.123665 0.026145 
119.081291 0.01852 
119.834122 0.011081 
120.280052 0.034398 
120.769463 0.024316 
121.493752 0.017058 
122.096542 0.012998 
123.091805 0.051653 
124.112206 33.17112 
124.13765 0.038045 
125.107475 0.203645 
125.115456 5.197957 
125.838638 0.028961 
126.054947 0.451409 
126.091377 0.41825 
126.118988 0.032516 
126.127701 0.106391 
126.196144 0.016536 
126.209694 0.01577 
126.620247 0.017791 
126.63562 0.05062 
127.176598 0.016805 
127.916451 0.012258 
128.107437 0.031889 
128.728622 0.017688 
128.813446 0.010719 
129.102112 0.214468 
131.212967 0.016404 
132.096756 0.147293 
132.101913 16.198275 
133.10524 1.75075 
134.106171 0.016495 
135.831406 0.053773 
137.106369 0.012916 
137.69545 0.053731 
138.127777 0.013307 
138.891739 0.037945 
139.086456 0.510131 
139.982727 0.031123 
140.48822 0.047596 
141.102341 0.136739 
141.416428 0.050897 
142.004364 0.054559 
142.086182 5.449142 
142.109924 0.037408 
142.122391 0.023593 
143.081863 0.066915 
143.089478 0.441033 
144.077316 0.016054 
147.107681 0.018863 
147.699722 0.050735 
148.445755 0.060121 
149.044739 1.198609 
149.874542 0.041527 
150.360733 0.062201 
151.086502 0.278481 
152.070312 0.115618 
152.106888 0.362275 
153.102097 2.996037 
154.08609 2.592432 
154.105392 0.201352 
154.989563 0.010866 
155.089584 0.147123 
155.117599 0.267904 
155.61731 0.016898 
156.102188 0.017615 
157.133392 1.88607 
158.141327 0.627842 
159.149277 0.16518 
161.700897 0.052478 
164.845032 0.025958 
167.055328 4.883057 
167.063446 0.050589 
167.081345 1.753489 
167.117981 0.163345 
168.054871 0.074524 
168.089584 0.8041 
168.413452 0.015553 
169.097076 14.788823 
169.10524 0.086806 
169.133423 5.062808 
169.94371 0.031087 
170.100479 2.316945 
170.117416 0.199081 
170.136841 0.640029 
171.103104 0.031738 
171.112732 0.120438 
173.643265 0.027642 
176.687286 0.017596 
179.117371 0.058722 
179.681625 0.041954 
180.101624 0.72568 
181.070923 0.017577 
181.096954 0.696924 
182.1008 0.014522 
182.283005 0.050926 
183.112717 0.240954 
184.794952 0.041244 
185.128311 9.20772 
186.131821 1.245467 
186.98114 0.041924 
187.107513 7.265263 
187.470566 0.062725 
188.110977 0.693821 
189.123215 0.053768 
191.807297 0.053853 
192.391815 0.034695 
193.060883 0.028424 
195.11264 0.196905 
195.246124 0.017785 
197.128296 6.038838 
197.280106 0.051428 
197.328568 0.05137 
197.704742 0.050485 
198.131866 1.126744 
199.107681 0.188199 
201.122498 0.039216 
202.914124 0.057538 
203.138916 58.527328 
204.142502 11.813586 
204.153244 0.064931 
205.143967 1.240406 
207.032669 0.020164 
209.090042 0.701826 
209.375473 0.056451 
209.632507 0.038626 
213.12326 0.939412 
214.127701 0.013062 
219.148743 0.162456 
220.682404 0.01608 
221.084366 0.132744 
223.0634 0.917175 
223.108139 0.031156 
223.179535 0.021989 
224.063766 0.01323 
225.042603 4.055982 
226.042603 0.142367 
227.021805 0.393475 
227.102585 0.329536 
229.118454 0.028251 
230.901199 0.056621 
235.143539 0.102394 
236.148026 0.014198 
237.12204 0.020899 
237.165726 0.03494 
237.246414 0.062999 
239.094543 1.762461 
240.095551 0.026505 
240.133911 0.074499 
240.170074 0.023283 
241.154327 1.243243 
241.808167 0.054994 
242.157944 0.054509 
243.666412 0.051954 
243.873611 0.012758 
245.365585 0.013777 
246.086975 0.025038 
247.121735 0.048963 
247.274002 0.02491 
247.534988 0.03628 
247.654495 0.051757 
248.59874 0.017608 
249.21434 0.048082 
250.371643 0.01999 
252.272751 0.065884 
253.283722 0.060392 
254.150299 0.020037 
254.186264 0.056562 
255.797409 0.033622 
257.185425 0.228502 
258.144806 0.039667 
259.447357 0.016381 
263.139313 0.01785 
263.648132 0.033847 
264.171326 0.020253 
266.998596 0.359255 
268.08316 0.170767 
268.165192 4.623525 
268.977844 1.422587 
269.088959 0.06114 
269.168518 1.154875 
269.978149 0.017459 
270.170563 0.027015 
270.366058 0.039724 
271.071686 0.019686 
273.122681 0.050827 
273.403656 0.037502 
274.17453 0.015977 
274.758118 0.018774 
276.168182 0.099663 
277.115051 0.193583 
278.149506 0.68065 
280.164764 0.262977 
281.05069 0.479842 
281.091614 0.024289 
281.168579 0.018381 
282.050446 0.015154 
282.180756 8.9118 
283.029816 0.740545 
283.10733 0.377786 
283.184235 2.699785 
284.110687 0.058725 
284.160248 0.048563 
284.184631 0.122227 
285.009186 11.949662 
285.122925 0.333705 
286.009308 0.87659 
286.176056 0.37528 
286.211243 0.012846 
287.180084 0.039572 
290.050812 0.060754 
294.145142 0.033863 
296.102539 0.195554 
296.160065 0.18165 
297.087158 0.054213 
297.105225 0.113247 
298.121429 0.036591 
298.139496 5.2227 
298.175812 0.018597 
299.029724 0.047014 
299.061249 10.160005 
299.142731 0.64867 
300.061768 0.867327 
300.191315 42.414295 
300.369629 0.015133 
301.194855 15.394547 
301.21463 0.052297 
301.223724 0.014688 
302.19696 3.404188 
303.019714 1.463982 
303.133514 1.284327 
303.199493 0.09659 
304.020111 0.044166 
304.094147 0.090384 
304.114777 0.107672 
304.13559 0.030037 
306.121735 0.057381 
306.144592 2.026969 
307.147552 0.086784 
308.157654 3.613918 
309.085693 0.023177 
309.161438 0.101495 
311.10199 0.143309 
311.15509 0.05213 
311.335632 0.012763 
312.155975 0.016746 
312.191589 1.724487 
313.078857 0.015282 
313.19458 0.17187 
314.205017 0.020862 
317.035126 0.019094 
320.138275 0.062967 
320.157776 0.324221 
322.082367 0.020759 
322.117798 0.191183 
322.151184 0.035102 
322.173065 2.139144 
323.102478 0.064301 
323.123291 0.12656 
323.176483 0.197543 
324.131348 2.508415 
324.154724 0.837696 
324.986237 0.344851 
325.08139 0.240482 
325.158691 0.109971 
326.085144 0.055519 
326.80365 0.016233 
326.839447 0.01594 
326.966064 0.035209 
327.096741 0.283125 
327.118744 0.017577 
328.10025 0.034337 
329.112854 0.393509 
329.182129 0.106852 
333.961914 0.050176 
334.137939 0.92255 
334.173523 2.879819 
335.177002 0.107138 
336.131592 0.161013 
337.081665 0.138212 
338.078461 0.013936 
338.14798 0.199188 
338.206818 1.952323 
339.038208 0.064785 
339.210236 0.409128 
339.238495 0.038153 
340.093994 0.017152 
340.185974 0.528669 
340.222626 0.013898 
341.017578 0.435933 
341.190033 0.049967 
342.996704 1.291439 
343.997314 0.052214 
344.975769 1.162969 
345.976105 0.044344 
346.136963 0.149272 
348.15271 2.185973 
348.188904 1.428495 
349.104828 0.33123 
349.155426 0.178787 
350.087585 0.033344 
350.11145 3.719843 
350.147614 1.892488 
351.11972 2.374151 
352.09491 0.09151 
352.123962 1.495518 
353.127472 0.201192 
354.108093 0.140395 
354.238464 3.447586 
355.069489 4.565043 
355.19696 0.016976 
355.241272 1.001789 
356.070221 0.460894 
356.14743 0.0867 
356.243805 0.124708 
357.048431 0.017689 
357.249115 0.900633 
357.954437 0.060765 
358.252319 0.114318 
359.027832 10.338732 
360.027954 1.214347 
362.111847 0.04513 
362.329742 0.037876 
364.092499 0.483807 
364.128174 0.062119 
365.096039 0.363152 
366.10791 0.565359 
366.14328 0.081226 
367.090576 0.226355 
367.113129 0.175718 
367.197266 0.074607 
367.236145 0.022934 
368.093292 0.044186 
368.119934 0.170077 
371.227966 0.18423 
372.120514 0.018758 
372.230621 0.021117 
373.080017 0.1903 
373.129089 0.376617 
373.233063 0.014287 
374.132141 0.281377 
375.135376 0.013504 
377.181183 1.400684 
378.107208 1.175673 
378.185791 0.140257 
379.112244 0.820461 
379.137726 0.013748 
380.117767 0.274801 
381.123199 0.021602 
381.249329 0.510757 
382.102661 0.060725 
382.139832 0.019943 
382.252319 0.187441 
383.228516 3.056274 
383.253754 0.047345 
384.153778 0.120807 
384.231354 0.709069 
385.243988 0.352804 
387.143677 0.169067 
387.175293 0.013329 
388.089539 0.030569 
388.149872 0.061057 
391.194611 10.479357 
392.122681 0.109693 
392.197968 1.16384 
393.121368 0.064032 
393.146881 0.017574 
394.102386 1.659701 
394.132568 0.150633 
395.108582 1.837012 
395.19223 2.876867 
396.082458 0.020718 
396.113129 0.843786 
396.194641 0.382944 
397.116882 0.074332 
397.243713 0.105614 
399.259735 1.079734 
400.111969 0.018438 
400.263092 0.687167 
401.264771 0.040492 
403.231049 0.138536 
404.109406 0.073536 
405.118713 0.79226 
405.210571 16.649494 
406.122467 0.249707 
406.17276 0.047017 
406.213409 3.713985 
407.168518 23.925562 
407.215729 0.058771 
408.171814 2.974411 
409.209717 0.019361 
409.243652 0.071914 
410.098114 0.456785 
410.133881 0.273376 
411.101135 0.247474 
411.135101 0.130936 
411.223358 3.783834 
412.105438 0.062609 
412.149384 0.832948 
412.226776 0.636899 
413.152313 0.074893 
413.229004 0.017313 
415.036102 0.081299 
416.084564 0.402454 
416.120667 0.01332 
417.174347 3.384631 
418.177216 0.095563 
418.994385 0.310944 
419.204102 0.245273 
421.114746 0.01948 
421.149689 0.032971 
421.241516 0.447803 
422.193726 0.020042 
428.108765 0.113622 
429.113983 0.082373 
429.248932 0.028969 
431.134979 1.253231 
431.189484 1.444808 
432.058716 0.153256 
432.142242 2.399273 
432.193634 0.170743 
433.11734 0.23886 
433.147369 4.48992 
434.121552 0.064714 
434.155151 2.07853 
434.187897 0.027048 
435.161316 1.394489 
435.25708 0.121038 
436.161865 0.206185 
436.291595 0.055483 
437.144348 0.01956 
437.176239 0.020819 
437.209503 1.858699 
437.238861 0.258275 
437.272583 0.057481 
438.244049 0.018554 
438.276947 0.041056 
439.163483 0.089514 
439.687683 0.058895 
443.168671 1.397254 
443.250336 0.017112 
444.14035 0.024846 
445.147644 0.10678 
446.037781 0.063091 
447.131683 0.076075 
447.16214 0.051754 
447.343903 0.021379 
448.113678 0.013999 
448.17099 0.127709 
449.145264 1.455208 
449.177429 0.16062 
450.122223 0.018022 
450.150116 0.943986 
450.187408 0.435821 
451.126617 0.022732 
451.15506 0.489886 
451.191406 0.458105 
452.159271 0.096668 
452.195709 0.071968 
453.178772 1.066446 
454.184235 0.017222 
454.268524 0.016852 
454.302582 0.542877 
455.130768 0.05987 
455.303925 0.156484 
455.537567 0.019029 
457.147339 0.021618 
458.152557 0.051089 
459.12973 10.88315 
459.162231 0.788671 
460.135925 21.011509 
461.140198 17.812513 
461.27243 0.091743 
462.143494 7.686443 
463.14682 0.603593 
463.187225 3.361129 
463.224915 0.868943 
464.190155 0.149461 
464.286346 0.302664 
465.140808 0.159517 
465.173737 0.014711 
466.144989 0.037248 
466.180481 0.026167 
467.111908 0.020071 
469.145782 0.022285 
474.306488 0.034236 
475.124756 0.460271 
475.158142 0.030585 
476.127625 0.741055 
476.16217 0.069962 
476.260864 0.115104 
477.137177 0.625398 
477.173523 0.191522 
478.145752 0.5607 
479.154236 0.939351 
480.15744 0.13899 
480.196289 0.022774 
480.281219 4.029915 
481.284424 1.045963 
482.176147 0.023478 
482.294342 0.377702 
483.222992 0.048765 
483.299744 0.091177 
485.143005 0.217893 
486.269257 0.050295 
487.158661 0.730819 
487.195709 0.022966 
488.123077 0.02004 
490.26709 0.017923 
491.190277 0.06838 
493.135498 1.75798 
493.170593 0.046169 
494.138245 2.092454 
494.174408 0.158858 
495.142273 0.869716 
495.182312 0.278202 
496.146759 0.016431 
496.187683 0.065156 
498.172668 0.0809 
502.171722 0.01628 
502.234375 0.022487 
504.187012 0.073538 
504.278656 4.95792 
505.16394 0.04744 
505.231476 0.015519 
505.280945 0.563671 
508.276093 3.670937 
509.279633 0.758952 
510.20578 0.023351 
510.282837 0.023137 
511.214905 0.020369 
512.189331 0.120448 
513.19635 0.015412 
514.205566 0.054084 
514.458496 0.030028 
515.153381 0.207921 
515.215271 0.192362 
516.219116 0.373953 
517.221741 0.023695 
518.2948 5.086677 
519.298035 1.216569 
520.25238 12.077245 
521.138367 0.027802 
521.204895 0.126949 
521.255432 1.752388 
522.205261 0.156998 
526.205994 3.254192 
526.2453 0.074154 
527.210632 1.498833 
530.205139 2.024201 
530.257935 8.181097 
531.124756 0.040229 
531.209229 3.084472 
531.260437 1.432331 
532.214355 2.704504 
532.262268 0.076719 
533.218262 1.296497 
534.227478 0.27585 
535.230042 0.048384 
540.22168 0.151939 
542.178406 3.212181 
543.184021 0.838066 
544.274658 0.648728 
545.189636 0.023013 
545.274109 0.025974 
546.227234 2.607479 
547.194641 0.088613 
548.2099 0.062158 
549.212646 0.070165 
550.195068 0.037111 
550.709961 0.034816 
551.22821 0.018953 
552.183899 0.349483 
553.184204 0.03448 
558.051514 0.019906 
558.197876 0.987601 
559.204834 6.240356 
560.209473 8.223223 
561.211914 4.799982 
562.214844 0.684206 
564.20636 0.044869 
564.239807 0.021317 
565.210388 0.157691 
566.206482 0.106499 
568.168091 0.089046 
568.217346 0.217357 
570.46991 0.043854 
572.212708 0.182738 
575.193787 0.016459 
576.202698 0.09155 
577.213318 0.27385 
578.21991 0.523225 
579.223206 0.242148 
582.23291 0.053069 
584.207581 0.250094 
585.129456 0.019192 
586.226562 2.898023 
587.229492 0.472346 
592.202759 0.060719 
593.204773 0.06957 
594.211426 0.021985 
599.257874 0.453134 
600.249329 0.076837 
601.277039 0.064471 
602.222961 5.491397 
603.222534 0.50248 
611.25769 1.229908 
612.207764 0.869388 
612.263062 0.110059 
613.208496 0.159516 
615.228271 0.382078 
623.257324 0.524735 
624.261658 0.350924 
625.233154 0.23272 
626.226562 0.019377 
627.233582 0.838869 
628.194946 1.907605 
628.256897 0.024315 
629.23938 0.016422 
630.276123 0.050127 
631.281433 0.026531 
637.274048 0.193207 
639.254028 7.42313 
640.256104 3.116682 
641.259277 0.16332 
643.249023 0.149954 
643.308716 0.157516 
644.247742 0.017253 
646.182739 0.021732 
646.260864 0.032429 
647.286194 0.018817 
649.290344 0.021567 
651.253601 0.174721 
652.246643 0.065085 
653.268005 0.312817 
654.270142 0.064127 
655.22522 9.006853 
656.22998 2.153401 
657.264771 8.594891 
658.267029 4.706998 
659.273376 0.716318 
660.282104 0.114263 
661.289307 0.0218 
664.280273 0.021103 
665.230042 0.191493 
667.241272 0.644899 
668.25708 0.058389 
669.265686 7.020517 
670.266785 2.789324 
671.220886 0.813006 
671.277283 0.479224 
672.286072 0.132301 
673.248413 14.529881 
674.250854 3.757628 
676.276794 0.022657 
677.283569 0.060404 
678.292358 0.022233 
681.205688 0.217127 
682.260498 0.033784 
683.240723 10.140669 
684.24353 4.755194 
685.238281 7.807097 
686.240845 1.783511 
692.285217 0.023551 
693.317688 0.016739 
695.242615 3.442416 
695.302307 0.078448 
696.264893 0.846774 
697.260071 2.547883 
698.260803 0.62884 
699.218079 16.271635 
700.219238 4.056538 
700.306824 0.034284 
701.249329 0.425216 
708.346436 0.085667 
709.258728 1.643543 
709.346863 0.022154 
709.666077 0.093838 
709.816345 0.051005 
709.895691 0.130793 
710.118408 0.110459 
710.165283 0.12266 
710.266052 0.641716 
711.2146 3.583626 
711.285461 0.069016 
712.270142 4.561985 
713.274475 0.764277 
715.272827 0.030162 
716.998352 0.053893 
717.223206 1.823515 
718.221741 0.075876 
720.242004 0.018931 
722.291321 0.308583 
723.272705 0.108584 
723.335266 0.279255 
724.338501 2.969518 
725.337952 0.630064 
726.319519 0.020933 
727.292236 0.089062 
728.242493 0.553541 
728.299866 0.203337 
729.301208 0.236925 
733.332458 0.021975 
734.326904 1.281801 
735.328186 0.310753 
736.240173 0.132718 
736.320862 0.022459 
737.248718 0.068752 
737.31189 0.057166 
738.258484 5.00902 
739.258789 2.085482 
740.046997 0.020931 
740.306641 9.387281 
741.307617 4.851224 
742.307434 0.601239 
743.320374 0.019486 
745.307434 0.075332 
746.307312 0.335656 
747.310181 0.319342 
748.341919 0.025188 
750.301697 1.955623 
751.304199 0.323669 
752.339966 7.735418 
753.341003 4.357381 
754.259033 1.62143 
754.327759 0.764814 
755.260315 1.68283 
755.328308 0.227251 
756.27533 16.181957 
757.278381 4.696717 
760.312012 0.035278 
761.330688 0.072403 
762.335083 0.158514 
763.344238 0.088418 
764.236023 0.078413 
766.279724 15.984396 
766.3479 1.127047 
767.282532 8.420466 
767.349304 0.466646 
768.310303 18.766748 
769.311157 6.439953 
770.327515 0.65721 
771.351746 0.025579 
776.370972 0.028582 
777.374512 0.067285 
778.316711 0.25369 
779.314148 0.596802 
780.291382 9.164973 
781.292603 5.654612 
781.567566 0.042353 
782.25116 25.179272 
783.25415 7.870786 
784.309875 0.691254 
785.303101 0.069704 
786.320068 4.107627 
787.31958 1.224601 
788.322144 0.040598 
792.330688 0.021361 
794.293152 1.059065 
795.295166 0.195821 
795.407898 0.021247 
796.327637 13.094109 
796.40625 0.020644 
797.330627 8.374071 
797.411438 0.050826 
798.331848 1.661181 
799.32251 0.019908 
803.376282 0.048334 
804.375793 0.150329 
805.38208 0.236959 
807.340881 0.014051 
808.327759 0.300053 
809.328796 0.827724 
810.344421 2.818646 
811.340393 2.27326 
812.30011 17.320526 
813.303772 5.43264 
814.338318 0.029047 
815.397522 0.032465 
816.402649 0.029501 
820.388855 0.070552 
821.388489 0.611435 
822.394043 0.155208 
823.404419 0.014742 
824.351624 0.575944 
825.351868 1.064847 
826.341003 0.354041 
830.304688 0.080581 
830.382935 0.160679 
831.384521 0.627471 
832.397339 0.67864 
833.40741 0.165366 
834.361877 0.020562 
834.416748 0.049112 
835.374207 0.325707 
836.378845 0.121839 
837.35083 3.871393 
838.353821 1.737483 
839.358337 0.097184 
842.382324 0.023991 
847.383667 0.01953 
848.387146 0.038738 
849.38208 0.092253 
850.390015 0.022736 
851.368591 17.465075 
852.373596 11.393478 
853.324707 23.943523 
854.328674 8.134527 
855.335571 1.022689 
857.381165 0.027507 
858.387756 0.410494 
859.393066 2.037155 
860.395081 2.953394 
861.39563 1.203099 
862.391418 0.066188 
864.390381 0.076228 
865.344482 0.636631 
866.359863 0.34438 
867.345581 0.825215 
868.342163 0.501217 
869.353455 2.745097 
870.358887 0.304848 
871.359802 0.021099 
877.390198 0.06387 
878.381897 0.0255 
879.363403 7.83092 
880.365479 5.451898 
881.316833 4.605928 
882.324585 1.140655 
883.357117 2.025523 
884.360291 0.831798 
893.37738 2.194551 
894.379395 1.872337 
895.335999 8.565249 
896.341003 3.071409 
897.373047 2.919342 
898.375183 1.326453 
899.330139 4.231083 
900.336426 0.890278 
905.380554 0.022746 
906.382935 0.075666 
907.33606 0.058538 
909.370422 0.073366 
922.411011 0.113057 
923.390747 5.494386 
924.394287 3.548847 
925.345581 6.788229 
926.350525 2.339959 
930.461243 0.096877 
931.467346 0.259881 
932.426331 3.031562 
933.428284 2.180191 
934.391174 0.781739 
935.39679 0.067687 
936.424988 0.032404 
948.423096 1.009504 
949.422302 0.422318 
950.400879 2.729406 
951.416382 1.02696 
952.375732 2.063566 
953.374939 0.664219 
954.388306 0.030105 
964.452332 3.217848 
965.453796 2.823606 
966.411804 6.065345 
967.416565 2.686992 
968.419373 0.550056 
976.414917 2.539164 
977.413208 2.239588 
978.382935 2.571834 
979.369446 0.804783 
980.410156 3.524954 
981.41217 1.998387 
982.414246 0.11805 
992.443604 0.292328 
993.447327 0.274308 
994.427185 33.700573 
995.430237 27.323551 
995.544556 0.102572 
996.383545 56.517788 
997.387451 24.056246 
997.537903 0.041221 
998.389221 3.898191 
1007.446167 0.417145 
1008.453674 0.281236 
1009.415833 1.14178 
1010.443237 0.149208 
1011.45459 0.050666 
1012.420166 0.355634 
1021.440796 2.088481 
1022.446777 1.090636 
1023.406616 4.994747 
1024.412109 3.017686 
1025.426392 1.543522 
1026.428101 0.070867 
1034.940552 0.032651 
1037.435669 0.194534 
1045.507812 0.139199 
1046.511597 0.088077 
1047.453735 0.927692 
1048.451538 0.96965 
1049.421753 2.630348 
1050.406982 1.117683 
1051.447144 4.808209 
1052.450317 3.626738 
1053.449097 0.599258 
1063.511963 0.137755 
1064.509521 0.106378 
1065.463501 48.151436 
1066.467773 44.066681 
1066.595215 0.248485 
1067.422241 100.0 
1068.425659 44.551308 
1068.613403 0.073048 
1069.428345 7.083003 
1078.49292 1.467658 
1079.49646 1.566459 
1080.453979 3.507721 
1081.460205 1.587024 
1089.497681 0.553243 
1090.502075 0.811487 
1091.46521 1.058891 
1092.458496 0.203629 
1093.499023 0.033217 
1094.596191 0.016428 
1095.588257 0.020424 
1107.510498 4.783838 
1108.513672 4.765257 
1109.470215 9.984269 
1110.474365 4.643132 
1111.479614 0.352842 
1120.506104 0.039352 
1134.542236 0.207397 
1135.543457 0.443477 
1136.509766 2.692884 
1137.504761 2.125875 
1138.514282 0.354944 
1150.541992 0.592099 
1151.549561 0.367469 
1152.51416 1.813832 
1153.514648 0.415444 
1160.531738 0.221655 
1161.534912 0.322488 
1162.502441 1.468855 
1163.499634 0.275407 
1164.519653 0.356218 
1165.540405 0.020421 
1178.547119 12.444361 
1179.550537 13.766075 
1180.508667 28.208754 
1181.51123 14.503118 
1182.511353 2.5989 
1265.609741 0.067 
1291.628052 0.053336 
1292.627563 0.390091 
1293.598022 1.817907 
1294.597778 0.590322 
END IONS

