BEGIN IONS
PEPMASS=868.506
CHARGE=1+
COMPOUNDNAME=MLS001074921-01!
LIBRARYQUALITY=3
SMILES=C[C@H]1[C@H]2[C@H](C[C@H]3[C@@H]4CC=C5C[C@H](CC[C@]5(C)[C@H]4CC[C@]23C)O[C@@H]6O[C@H](CO)[C@H](O)[C@H](O[C@@H]7O[C@H](CO)[C@@H](O)[C@H](O)[C@H]7O)[C@H]6O[C@@H]8O[C@@H](C)[C@H](O)[C@@H](O)[C@H]8O)N9C[C@@H](C)CC[C@H]19
INCHIKEY=ZGVSETXHNHBTRK-UDJLNJFBSA-N
INCHI=N/A
MSLEVEL=2
SOURCE_INSTRUMENT=LC-ESI-qTof
FILENAME=p1-D07_GD7_01_17915.mzXML
SEQ=*..*
IONMODE=Positive
ORGANISM=GNPS-NIH-NATURALPRODUCTSLIBRARY
NAME=MLS001074921-01! M+H
PI=Dorrestein
DATACOLLECTOR=VVP/LMS
PUBMED=N/A
SUBMITUSER=vphelan
TAGS=
SPECTRUMID=CCMSLIB00000079506
SCANS=1680
96.140099 100.0 
96.524925 140.0 
96.896797 68.0 
98.032486 236.0 
98.097214 620.0 
99.629196 72.0 
99.702713 68.0 
101.469223 104.0 
101.726006 156.0 
101.87059 184.0 
102.01326 36.0 
102.105751 84.0 
103.463707 96.0 
104.027267 172.0 
105.999474 28.0 
106.617149 96.0 
107.963318 160.0 
108.935387 28.0 
109.828354 72.0 
112.079895 96.0 
112.44471 60.0 
112.901039 40.0 
112.962372 48.0 
113.129547 108.0 
113.209999 160.0 
114.13092 76.0 
114.918983 32.0 
115.504318 88.0 
115.992523 80.0 
116.795578 112.0 
117.252022 80.0 
117.325302 68.0 
117.53019 52.0 
119.571503 88.0 
123.901718 92.0 
123.919441 76.0 
125.660278 108.0 
126.128105 324.0 
126.321533 68.0 
126.507263 56.0 
126.89035 52.0 
126.926224 92.0 
127.018173 88.0 
127.597542 72.0 
128.038559 156.0 
128.146683 204.0 
129.187424 68.0 
129.987198 76.0 
130.450516 188.0 
130.953369 68.0 
132.007706 76.0 
134.516968 100.0 
135.031845 132.0 
136.116364 120.0 
136.325439 52.0 
136.418396 68.0 
136.655609 88.0 
137.405807 64.0 
137.52948 72.0 
138.595856 120.0 
139.370148 40.0 
140.113617 104.0 
140.351654 72.0 
141.4431 76.0 
143.319214 104.0 
143.624359 108.0 
146.510483 80.0 
146.717743 76.0 
147.301712 68.0 
148.259827 160.0 
148.621124 64.0 
149.02417 72.0 
150.129257 144.0 
150.570969 108.0 
150.954636 28.0 
151.500427 124.0 
153.200378 104.0 
153.441879 124.0 
155.807831 124.0 
156.907822 180.0 
157.100586 448.0 
157.119797 64.0 
157.7341 112.0 
157.949142 40.0 
158.102585 156.0 
158.883514 44.0 
159.209808 92.0 
161.672775 40.0 
162.426514 40.0 
162.61554 92.0 
162.821182 64.0 
163.197266 108.0 
166.994751 48.0 
168.756012 40.0 
171.794556 68.0 
173.187775 84.0 
173.496979 64.0 
173.992798 44.0 
174.889175 60.0 
175.98317 56.0 
178.854172 40.0 
179.573547 48.0 
179.682922 40.0 
181.858429 96.0 
182.132294 56.0 
183.113998 148.0 
183.569427 104.0 
185.70047 100.0 
185.906647 72.0 
186.637344 44.0 
191.764771 36.0 
192.217026 60.0 
192.932358 120.0 
194.092407 84.0 
196.068863 76.0 
201.727386 48.0 
204.050262 104.0 
206.35849 100.0 
206.962189 76.0 
207.070999 80.0 
207.75032 80.0 
209.129562 148.0 
211.259048 76.0 
211.788757 124.0 
212.058212 92.0 
212.336533 100.0 
213.989929 96.0 
214.730072 48.0 
218.394058 96.0 
221.158691 60.0 
221.404419 40.0 
223.095657 64.0 
223.61322 56.0 
223.907944 68.0 
225.160507 40.0 
225.826981 52.0 
227.012924 116.0 
229.43631 124.0 
234.431396 92.0 
236.006439 100.0 
236.746948 76.0 
238.421921 64.0 
239.1539 104.0 
239.181595 164.0 
243.329239 48.0 
244.197098 84.0 
244.274857 56.0 
244.69809 84.0 
245.801453 60.0 
247.44548 172.0 
249.007065 144.0 
251.207184 64.0 
253.128769 88.0 
253.192093 108.0 
254.203339 96.0 
255.541031 180.0 
256.438995 88.0 
257.609131 72.0 
258.441254 116.0 
260.23288 52.0 
260.544403 108.0 
260.867065 128.0 
261.528381 116.0 
263.127258 84.0 
263.320984 56.0 
263.359741 60.0 
263.828278 120.0 
265.473083 32.0 
267.549255 152.0 
268.288757 92.0 
269.976807 68.0 
272.707733 80.0 
273.210815 128.0 
276.997162 100.0 
277.424622 120.0 
279.347321 44.0 
279.883148 76.0 
281.310028 48.0 
282.693726 64.0 
285.027557 192.0 
285.898468 128.0 
287.033691 108.0 
290.446014 56.0 
291.841766 88.0 
293.35675 36.0 
293.680664 40.0 
301.418762 116.0 
305.016083 76.0 
306.704254 80.0 
308.837616 60.0 
311.006439 112.0 
312.200928 92.0 
312.306458 44.0 
312.362732 96.0 
315.840637 80.0 
316.980621 84.0 
317.618744 48.0 
318.282379 112.0 
322.378815 112.0 
323.151123 156.0 
323.64505 92.0 
324.254028 140.0 
324.723694 68.0 
325.739441 92.0 
326.799957 116.0 
329.890656 96.0 
329.952118 68.0 
331.972473 88.0 
333.980835 96.0 
335.893097 144.0 
336.192291 136.0 
336.279877 88.0 
337.061371 132.0 
339.770721 104.0 
340.313324 132.0 
340.600311 196.0 
342.052734 116.0 
342.55722 56.0 
342.792999 96.0 
343.593079 96.0 
343.843994 112.0 
343.88092 100.0 
348.361206 80.0 
348.643585 132.0 
349.10083 56.0 
350.306702 140.0 
351.305725 72.0 
352.69104 92.0 
352.972504 112.0 
354.360046 156.0 
354.911011 220.0 
358.643982 40.0 
360.689758 100.0 
360.735107 108.0 
361.370453 56.0 
361.907898 184.0 
366.077118 40.0 
366.187561 32.0 
366.324677 132.0 
367.304321 88.0 
368.636749 72.0 
369.229279 76.0 
370.086426 132.0 
372.533234 60.0 
373.825073 192.0 
374.086761 80.0 
374.321625 84.0 
377.679169 84.0 
378.224731 128.0 
379.406219 80.0 
380.326843 672.0 
381.31897 144.0 
383.686432 180.0 
383.873596 56.0 
384.575806 156.0 
385.169312 128.0 
387.038635 124.0 
387.085632 112.0 
388.414215 104.0 
388.732635 72.0 
389.010651 56.0 
390.672882 80.0 
390.767303 108.0 
391.8815 100.0 
392.697479 120.0 
395.554199 76.0 
396.274933 112.0 
396.671234 76.0 
396.770325 124.0 
396.936859 148.0 
397.901001 184.0 
398.107452 96.0 
398.278229 164.0 
398.339447 2168.0 
398.524536 40.0 
399.345642 484.0 
399.786621 112.0 
400.274628 36.0 
400.337646 136.0 
400.577332 148.0 
401.573792 108.0 
402.236115 164.0 
402.264069 120.0 
402.867035 36.0 
403.070801 88.0 
403.290588 104.0 
404.186401 56.0 
404.630646 88.0 
404.73877 48.0 
405.724335 152.0 
406.438232 160.0 
408.607849 92.0 
409.880127 172.0 
411.0737 60.0 
411.315857 176.0 
411.501526 148.0 
411.870911 112.0 
413.320343 100.0 
414.186707 96.0 
414.883667 164.0 
416.186005 56.0 
416.486511 176.0 
417.144775 92.0 
418.194183 192.0 
419.469055 144.0 
420.615265 100.0 
421.411591 80.0 
421.795746 84.0 
424.875153 160.0 
425.006439 76.0 
425.273193 128.0 
425.41275 40.0 
426.97406 104.0 
427.1427 100.0 
427.920471 136.0 
428.015167 92.0 
428.52179 72.0 
428.703094 56.0 
428.913269 144.0 
429.30545 96.0 
431.824097 176.0 
432.138489 92.0 
432.258484 88.0 
432.527863 88.0 
432.598145 60.0 
434.060333 108.0 
434.172302 96.0 
435.467163 72.0 
435.944916 88.0 
436.373047 112.0 
436.576782 108.0 
437.113403 180.0 
437.58371 84.0 
438.821106 96.0 
439.63446 160.0 
441.046082 60.0 
441.234192 140.0 
441.49762 48.0 
441.715118 80.0 
442.28418 88.0 
442.74472 88.0 
443.721008 100.0 
444.073242 164.0 
444.371063 140.0 
445.286163 92.0 
445.458374 152.0 
445.703949 132.0 
446.42923 52.0 
446.568024 56.0 
447.089691 68.0 
447.308533 112.0 
447.607452 128.0 
447.805389 108.0 
448.30249 56.0 
448.64389 124.0 
449.103516 84.0 
450.610535 116.0 
451.434753 128.0 
452.043884 144.0 
452.255493 124.0 
452.420563 96.0 
452.640717 148.0 
452.884583 144.0 
453.195587 172.0 
454.802826 76.0 
454.879211 72.0 
455.074493 68.0 
455.741302 116.0 
456.213074 52.0 
456.24707 48.0 
456.32785 100.0 
456.579773 80.0 
456.774353 208.0 
457.753235 116.0 
457.944855 80.0 
459.189087 64.0 
460.115295 112.0 
460.973816 68.0 
461.285797 92.0 
462.367889 96.0 
463.877869 140.0 
464.493958 92.0 
464.698914 80.0 
464.836243 112.0 
464.939209 52.0 
464.999298 116.0 
465.166687 60.0 
465.587463 132.0 
465.699127 80.0 
465.91391 116.0 
466.369385 88.0 
466.769196 88.0 
466.833679 72.0 
467.130463 68.0 
467.229401 76.0 
467.276703 100.0 
467.332642 184.0 
470.137787 128.0 
470.327667 76.0 
470.681671 72.0 
470.711914 108.0 
472.972961 144.0 
473.479492 80.0 
473.579102 172.0 
474.068665 52.0 
475.981628 136.0 
477.111237 64.0 
477.702667 140.0 
478.068146 84.0 
478.808197 84.0 
479.387604 64.0 
479.853973 120.0 
480.024017 56.0 
480.285675 164.0 
481.027466 52.0 
481.079865 92.0 
481.149689 64.0 
481.389832 136.0 
482.080048 80.0 
482.530243 104.0 
482.88443 80.0 
483.470642 84.0 
484.232422 192.0 
484.490845 68.0 
484.683289 108.0 
486.872528 132.0 
487.940247 96.0 
488.252441 136.0 
488.599915 112.0 
488.648315 176.0 
490.709473 104.0 
491.221039 104.0 
491.260742 132.0 
491.406311 44.0 
491.799042 100.0 
492.103638 112.0 
492.138977 140.0 
492.311188 92.0 
492.465759 152.0 
493.071014 80.0 
493.261078 68.0 
494.074738 72.0 
494.503937 60.0 
494.827087 96.0 
495.013062 52.0 
495.407227 112.0 
495.455963 80.0 
495.983276 72.0 
496.643921 100.0 
496.918976 172.0 
497.669037 316.0 
497.828888 60.0 
498.206421 44.0 
498.344147 108.0 
498.672974 124.0 
499.464386 88.0 
499.971588 160.0 
500.545837 44.0 
500.643799 88.0 
500.723969 128.0 
501.41449 128.0 
501.704224 56.0 
502.07431 152.0 
502.377594 120.0 
502.645294 112.0 
502.819336 96.0 
502.980011 28.0 
503.980347 48.0 
504.078125 136.0 
504.302094 116.0 
504.369141 80.0 
504.467468 76.0 
505.612488 112.0 
506.078033 72.0 
506.450989 112.0 
507.081451 152.0 
509.34726 72.0 
509.59433 108.0 
509.827972 108.0 
510.09317 52.0 
510.124634 68.0 
510.219025 64.0 
510.308929 52.0 
510.484314 128.0 
510.565247 80.0 
510.853119 116.0 
511.199524 100.0 
511.231049 64.0 
511.528076 28.0 
511.631622 48.0 
511.897278 136.0 
512.203491 84.0 
513.772217 128.0 
513.97522 48.0 
514.273071 156.0 
514.408508 48.0 
514.625183 124.0 
514.882568 164.0 
515.266541 72.0 
515.528564 68.0 
515.759094 180.0 
515.93988 112.0 
516.00769 48.0 
516.179504 60.0 
516.568481 76.0 
516.613708 84.0 
516.94397 140.0 
518.04126 184.0 
518.24353 92.0 
519.195435 136.0 
520.016541 148.0 
520.60675 72.0 
520.742981 124.0 
521.219971 132.0 
521.347229 208.0 
522.820618 40.0 
523.057312 96.0 
524.16394 160.0 
524.537659 164.0 
524.729126 180.0 
524.911499 64.0 
524.984497 48.0 
525.335693 104.0 
525.495361 84.0 
525.632202 120.0 
525.778259 156.0 
525.842163 88.0 
525.947144 104.0 
525.98822 136.0 
526.540649 44.0 
527.495544 80.0 
527.966492 140.0 
528.250061 136.0 
528.32135 116.0 
528.378174 112.0 
528.542847 132.0 
528.684692 108.0 
528.963928 124.0 
529.133301 168.0 
529.190308 96.0 
529.882202 136.0 
529.971436 168.0 
530.250977 104.0 
531.360596 80.0 
531.3927 112.0 
531.585449 108.0 
531.79657 152.0 
531.828674 132.0 
532.251038 108.0 
532.379578 136.0 
532.779175 72.0 
533.406433 88.0 
533.952148 108.0 
534.673584 200.0 
535.387146 132.0 
535.552917 128.0 
535.847717 136.0 
536.465271 140.0 
536.571289 136.0 
537.06012 152.0 
537.29071 172.0 
537.378418 108.0 
537.696106 136.0 
538.130676 128.0 
538.706238 144.0 
539.136719 144.0 
539.211609 256.0 
539.285522 152.0 
540.14093 56.0 
540.242676 108.0 
540.464783 136.0 
540.649841 88.0 
540.911377 152.0 
541.941772 148.0 
542.187317 148.0 
542.391296 156.0 
542.442261 152.0 
542.58136 148.0 
542.789978 88.0 
542.99054 144.0 
543.402222 120.0 
543.922668 108.0 
544.154053 100.0 
544.65094 128.0 
544.734558 140.0 
544.790283 32.0 
545.087646 64.0 
545.361816 92.0 
545.408325 148.0 
546.091797 72.0 
546.198792 84.0 
546.980469 128.0 
547.51593 100.0 
547.664917 96.0 
548.368469 216.0 
548.545593 104.0 
548.802002 216.0 
548.857971 64.0 
549.75354 96.0 
550.439758 84.0 
550.930176 136.0 
551.004883 164.0 
551.135742 72.0 
551.3927 116.0 
551.939636 128.0 
552.112671 100.0 
552.159424 120.0 
552.296509 180.0 
552.435425 60.0 
552.500916 152.0 
552.879883 72.0 
552.940735 108.0 
553.184143 56.0 
554.35968 112.0 
554.584656 156.0 
554.786194 104.0 
554.865906 72.0 
555.01123 88.0 
555.184753 44.0 
555.367615 68.0 
556.414062 136.0 
556.507935 204.0 
556.540833 156.0 
557.226562 128.0 
557.334595 116.0 
557.762268 56.0 
557.851562 112.0 
558.044312 156.0 
558.994446 108.0 
559.154419 68.0 
559.39917 112.0 
560.027527 100.0 
560.40918 168.0 
560.901794 92.0 
561.241272 68.0 
561.40155 88.0 
561.55249 180.0 
561.60907 52.0 
561.90625 68.0 
562.203552 140.0 
562.392334 164.0 
562.954102 88.0 
563.090759 128.0 
563.440613 172.0 
564.258179 128.0 
565.379211 104.0 
565.473877 160.0 
565.757874 128.0 
566.561523 124.0 
567.084167 76.0 
567.224182 160.0 
567.615112 164.0 
567.747314 68.0 
567.984985 36.0 
568.155762 112.0 
570.058472 188.0 
570.27356 92.0 
570.739441 124.0 
570.858337 92.0 
570.981934 168.0 
571.105591 160.0 
571.310181 132.0 
571.543274 104.0 
571.595642 96.0 
571.757385 124.0 
571.962036 88.0 
572.044067 192.0 
572.228638 136.0 
572.414368 92.0 
572.514343 120.0 
572.919189 100.0 
573.27655 112.0 
573.58844 108.0 
573.738892 148.0 
573.905701 124.0 
574.468506 128.0 
574.563904 44.0 
574.673645 176.0 
574.9599 136.0 
575.370422 80.0 
575.427673 120.0 
575.671204 152.0 
575.742859 116.0 
575.833557 100.0 
575.933899 72.0 
576.03418 108.0 
576.569336 116.0 
576.784363 108.0 
577.032959 104.0 
577.597229 36.0 
577.994324 84.0 
578.736206 56.0 
578.798462 96.0 
578.980408 68.0 
579.397156 44.0 
579.746887 148.0 
580.106384 112.0 
580.211853 136.0 
580.413208 104.0 
580.509094 160.0 
580.903381 100.0 
581.554932 108.0 
582.500854 116.0 
582.692993 56.0 
582.890015 148.0 
583.034973 116.0 
583.168762 172.0 
583.937988 60.0 
583.97644 64.0 
584.019775 116.0 
584.063049 164.0 
584.250671 144.0 
584.322815 124.0 
584.390137 108.0 
585.434692 100.0 
585.781433 148.0 
585.954895 80.0 
585.993408 100.0 
586.480103 116.0 
586.798279 52.0 
586.976685 36.0 
587.07312 60.0 
587.111694 104.0 
587.748413 116.0 
587.849792 108.0 
587.980042 108.0 
588.240723 92.0 
589.182373 116.0 
589.283813 152.0 
589.902405 100.0 
590.144104 132.0 
590.468079 112.0 
592.152283 96.0 
592.321838 104.0 
592.638916 96.0 
593.247375 116.0 
593.441284 140.0 
593.615845 76.0 
593.761292 72.0 
594.876709 176.0 
595.309387 104.0 
595.421082 116.0 
596.266418 88.0 
596.703857 96.0 
597.19989 112.0 
597.263123 72.0 
597.345764 96.0 
597.752258 152.0 
597.948425 144.0 
598.138916 152.0 
598.299561 108.0 
598.356934 56.0 
598.504028 96.0 
598.650146 144.0 
598.932617 52.0 
599.351562 52.0 
600.209412 176.0 
600.658081 124.0 
600.794678 132.0 
600.926392 124.0 
601.533569 152.0 
601.609619 132.0 
601.892822 144.0 
602.249329 136.0 
602.324402 192.0 
602.688965 132.0 
603.02124 60.0 
603.079895 76.0 
603.769287 152.0 
604.096985 108.0 
604.170349 100.0 
604.444336 136.0 
604.600891 100.0 
604.693909 172.0 
604.835815 124.0 
605.026733 124.0 
605.232361 68.0 
605.281372 96.0 
606.040527 84.0 
606.109131 132.0 
606.331604 140.0 
607.172852 64.0 
607.251343 104.0 
607.304626 144.0 
607.457336 76.0 
607.663391 88.0 
607.786072 112.0 
608.122559 132.0 
608.305481 120.0 
609.052612 76.0 
609.131226 96.0 
609.376831 128.0 
610.09436 108.0 
610.241821 168.0 
610.276245 140.0 
610.41394 76.0 
610.645081 148.0 
610.856567 60.0 
610.930237 156.0 
611.244202 112.0 
611.590271 144.0 
611.722656 52.0 
611.810059 136.0 
611.822021 168.0 
611.909668 164.0 
612.121399 116.0 
612.259277 44.0 
612.328247 232.0 
612.724121 112.0 
612.963745 48.0 
613.062256 112.0 
613.106628 100.0 
613.529114 140.0 
613.579834 48.0 
613.708008 148.0 
613.9151 136.0 
614.334351 72.0 
614.413269 160.0 
615.089294 140.0 
615.410217 120.0 
615.647217 136.0 
615.750916 136.0 
615.800293 148.0 
615.91394 44.0 
616.593079 248.0 
617.292786 36.0 
617.467468 136.0 
617.594421 164.0 
617.663696 80.0 
618.049561 144.0 
618.455322 124.0 
619.227722 120.0 
619.505066 104.0 
619.643799 128.0 
619.767639 40.0 
619.881653 80.0 
619.946045 88.0 
620.063721 96.0 
620.421875 100.0 
620.952454 168.0 
621.011963 128.0 
621.140869 60.0 
622.500732 284.0 
622.600098 176.0 
623.315369 180.0 
623.439636 92.0 
623.598633 104.0 
623.911804 132.0 
624.020264 88.0 
624.284729 104.0 
624.58313 100.0 
624.782104 124.0 
624.871643 124.0 
624.941284 88.0 
625.573303 88.0 
625.857117 92.0 
626.076172 84.0 
626.18573 84.0 
626.290344 124.0 
626.439758 156.0 
626.982849 176.0 
627.117432 160.0 
627.281921 88.0 
627.965027 80.0 
628.012512 92.0 
628.698364 180.0 
629.474243 152.0 
629.951599 160.0 
630.021484 64.0 
630.446228 84.0 
630.701111 64.0 
630.781067 128.0 
630.971008 64.0 
631.126038 40.0 
631.841248 176.0 
632.373901 132.0 
632.50177 88.0 
632.75708 72.0 
633.147644 132.0 
633.212708 152.0 
633.693604 92.0 
633.827698 168.0 
633.894043 52.0 
633.934143 120.0 
634.144592 136.0 
634.365173 60.0 
634.69104 140.0 
635.021973 60.0 
635.067139 124.0 
635.1474 80.0 
635.312927 84.0 
635.566711 108.0 
635.849792 60.0 
636.251343 104.0 
636.924255 128.0 
637.096619 184.0 
637.587402 112.0 
637.638611 92.0 
637.733154 120.0 
637.954346 84.0 
638.075012 72.0 
638.160461 128.0 
638.494812 80.0 
638.557739 44.0 
638.788269 188.0 
639.327454 96.0 
639.453247 88.0 
639.526062 144.0 
639.704895 112.0 
639.96167 100.0 
640.445129 164.0 
640.727173 88.0 
641.02948 160.0 
641.372192 124.0 
641.407471 200.0 
641.511047 136.0 
641.694824 172.0 
642.017517 108.0 
642.133545 116.0 
642.416016 96.0 
642.567322 136.0 
642.955872 204.0 
643.074097 148.0 
643.344482 136.0 
643.662598 92.0 
643.869629 164.0 
644.536438 180.0 
644.991272 132.0 
645.036743 132.0 
645.08728 88.0 
645.178284 72.0 
645.522095 80.0 
645.597961 152.0 
645.764832 88.0 
645.810364 104.0 
646.113831 128.0 
646.154358 112.0 
646.352051 152.0 
646.589478 164.0 
647.019714 100.0 
647.115906 60.0 
647.161499 100.0 
647.341187 124.0 
647.409607 56.0 
647.475464 164.0 
647.713501 136.0 
648.098511 120.0 
648.215027 148.0 
648.422791 40.0 
648.514038 188.0 
648.60022 176.0 
648.701599 88.0 
649.538269 52.0 
649.847717 132.0 
650.157227 152.0 
650.568359 116.0 
650.751099 172.0 
650.974548 64.0 
651.065308 128.0 
651.27417 60.0 
651.655151 148.0 
651.690735 56.0 
652.148071 208.0 
652.239563 72.0 
652.880188 92.0 
652.936096 116.0 
652.997131 108.0 
653.088684 32.0 
653.139526 44.0 
653.236206 172.0 
653.454956 124.0 
653.521057 224.0 
653.561768 140.0 
653.617737 84.0 
653.653381 96.0 
653.800964 100.0 
654.045227 72.0 
654.09613 192.0 
654.266357 108.0 
654.564514 116.0 
654.659668 168.0 
654.977051 96.0 
655.384583 152.0 
655.460999 48.0 
655.583313 68.0 
655.776978 96.0 
656.021606 68.0 
656.26123 124.0 
656.541687 88.0 
656.607971 140.0 
656.694702 92.0 
656.730408 76.0 
657.388489 160.0 
658.006104 84.0 
658.04187 80.0 
658.424805 116.0 
658.593323 80.0 
658.752869 172.0 
658.940735 120.0 
659.083801 56.0 
659.621094 84.0 
659.666382 96.0 
659.82489 56.0 
660.090942 100.0 
660.320862 56.0 
660.412903 132.0 
660.44873 84.0 
660.684021 140.0 
660.811951 76.0 
661.075745 128.0 
661.24176 36.0 
661.282715 64.0 
661.697327 84.0 
661.840698 88.0 
661.958435 136.0 
662.163269 72.0 
662.224854 108.0 
662.378418 128.0 
662.542358 204.0 
662.58844 84.0 
662.750305 160.0 
662.824097 148.0 
663.285339 140.0 
663.336609 168.0 
663.413513 120.0 
663.782654 48.0 
664.008301 112.0 
664.126221 72.0 
664.264771 232.0 
664.546875 116.0 
664.612061 172.0 
664.767517 44.0 
664.926636 132.0 
665.096008 108.0 
665.285889 192.0 
665.347534 132.0 
665.393738 148.0 
665.91748 100.0 
666.128052 100.0 
666.564758 104.0 
666.654968 108.0 
666.713806 136.0 
666.879883 64.0 
666.950195 160.0 
667.039673 100.0 
667.155823 108.0 
667.392334 116.0 
667.659729 88.0 
667.752258 144.0 
668.132935 148.0 
668.189514 32.0 
668.261536 88.0 
668.374695 160.0 
668.426147 144.0 
668.570251 88.0 
668.657776 164.0 
668.858459 92.0 
668.981995 132.0 
669.136475 100.0 
669.26001 136.0 
669.5896 52.0 
669.728638 52.0 
669.914062 64.0 
670.089233 52.0 
670.248962 56.0 
670.401001 96.0 
670.479675 196.0 
670.599365 136.0 
670.72821 80.0 
671.083923 136.0 
671.1922 108.0 
671.285034 152.0 
671.362366 100.0 
671.671814 100.0 
671.888489 32.0 
672.120667 104.0 
672.270325 132.0 
672.73999 72.0 
672.807068 56.0 
673.08075 112.0 
673.437073 48.0 
673.540344 108.0 
673.65918 120.0 
674.082947 128.0 
674.160339 116.0 
674.594482 132.0 
674.765076 156.0 
674.842651 104.0 
674.894348 192.0 
675.280212 84.0 
675.344238 52.0 
675.65979 84.0 
675.752869 128.0 
675.861572 104.0 
676.094421 104.0 
676.223755 220.0 
676.280701 92.0 
677.021057 108.0 
677.342163 160.0 
677.492371 120.0 
677.56488 128.0 
677.844666 72.0 
678.186707 104.0 
678.321472 60.0 
678.461426 160.0 
678.782898 180.0 
678.839966 116.0 
679.560913 140.0 
679.685425 44.0 
679.877441 148.0 
679.944885 96.0 
680.033142 96.0 
680.142151 168.0 
680.217468 116.0 
680.291321 108.0 
680.370544 100.0 
680.56781 128.0 
680.946899 184.0 
681.159851 112.0 
681.201416 104.0 
681.403992 156.0 
681.487122 80.0 
681.738342 176.0 
681.857849 140.0 
681.892456 152.0 
681.928833 148.0 
682.095154 40.0 
682.230835 144.0 
682.436096 152.0 
682.505859 68.0 
683.072754 96.0 
683.150757 136.0 
683.374451 128.0 
683.421265 80.0 
683.530701 128.0 
683.714417 144.0 
684.040588 76.0 
684.352905 148.0 
684.394592 152.0 
684.436218 104.0 
684.509155 160.0 
684.566406 220.0 
684.602844 76.0 
684.696594 56.0 
684.870667 132.0 
685.240662 36.0 
685.330383 180.0 
685.461548 224.0 
685.6604 80.0 
686.082581 140.0 
686.166016 116.0 
686.338074 144.0 
686.85437 128.0 
686.969116 88.0 
687.156921 84.0 
687.19342 152.0 
687.289795 164.0 
687.819641 84.0 
688.226868 88.0 
688.402832 160.0 
688.613281 108.0 
689.078186 124.0 
689.127014 104.0 
689.182678 112.0 
689.762756 132.0 
690.077393 152.0 
690.123474 88.0 
690.592163 128.0 
690.965515 68.0 
691.117249 204.0 
691.253296 72.0 
691.436462 44.0 
691.687683 100.0 
691.813293 68.0 
691.891846 64.0 
692.132629 120.0 
692.288391 92.0 
692.378784 84.0 
692.839722 144.0 
692.881592 92.0 
692.93927 104.0 
693.253601 76.0 
693.431824 148.0 
693.528931 128.0 
693.630981 116.0 
693.784973 140.0 
693.903564 76.0 
694.115662 212.0 
694.191956 208.0 
694.296814 232.0 
694.396484 92.0 
694.490906 84.0 
694.577332 108.0 
694.619507 108.0 
694.763672 156.0 
694.868591 120.0 
695.198975 116.0 
695.430054 124.0 
696.018005 100.0 
696.112549 112.0 
696.196716 140.0 
696.280579 88.0 
696.317322 156.0 
696.700317 44.0 
696.769409 116.0 
696.889893 120.0 
697.02124 48.0 
697.173645 80.0 
697.341797 128.0 
697.420654 128.0 
697.783386 76.0 
697.867493 104.0 
698.214539 52.0 
698.561707 128.0 
698.698425 76.0 
698.751038 128.0 
698.856262 156.0 
698.987854 160.0 
699.072021 104.0 
699.548645 156.0 
699.651001 116.0 
699.687866 68.0 
699.798401 152.0 
699.945801 136.0 
700.003723 100.0 
700.068848 164.0 
700.272339 192.0 
700.367126 72.0 
700.562012 76.0 
700.604187 124.0 
700.839478 132.0 
700.925537 68.0 
701.459473 140.0 
701.652893 136.0 
701.898438 112.0 
701.934509 108.0 
702.037781 76.0 
702.190735 140.0 
702.364807 136.0 
702.410339 92.0 
702.486084 100.0 
702.546082 128.0 
702.82373 116.0 
703.03479 72.0 
703.578491 48.0 
703.731567 100.0 
703.800232 152.0 
703.884705 68.0 
703.926941 132.0 
703.990295 48.0 
704.460388 88.0 
704.509888 128.0 
704.558472 112.0 
704.691101 140.0 
704.857544 112.0 
705.036255 120.0 
705.10498 84.0 
705.184265 120.0 
705.419128 136.0 
705.526611 88.0 
705.649414 64.0 
705.744568 136.0 
705.797485 116.0 
705.966675 216.0 
706.257568 156.0 
706.363342 112.0 
706.453613 1276.0 
706.548462 116.0 
706.79187 36.0 
706.84967 228.0 
706.955872 108.0 
707.029968 60.0 
707.2099 152.0 
707.457581 536.0 
707.836304 216.0 
707.945801 160.0 
707.998779 40.0 
708.104675 116.0 
708.28479 156.0 
708.364197 140.0 
708.435974 404.0 
708.745667 52.0 
709.265015 60.0 
709.450562 120.0 
709.513672 84.0 
710.251221 68.0 
710.38385 120.0 
710.569519 128.0 
710.617249 60.0 
710.769531 160.0 
710.851746 108.0 
710.978088 160.0 
711.015259 120.0 
711.113403 272.0 
711.243469 64.0 
711.461121 108.0 
711.498291 60.0 
711.572571 176.0 
711.630981 112.0 
711.859314 160.0 
712.061096 156.0 
712.113525 148.0 
712.547791 148.0 
712.661377 128.0 
712.746399 144.0 
712.794189 84.0 
712.903198 100.0 
713.029724 160.0 
713.21936 84.0 
713.426636 68.0 
713.517029 132.0 
713.628662 116.0 
713.713745 112.0 
713.82196 196.0 
713.958374 112.0 
714.245544 228.0 
714.320007 140.0 
714.38916 84.0 
715.024902 108.0 
715.112793 156.0 
715.299133 108.0 
715.510925 156.0 
715.852783 184.0 
715.932678 152.0 
716.225586 80.0 
716.401367 124.0 
716.529236 136.0 
716.678406 44.0 
716.891541 76.0 
716.944824 56.0 
717.392578 76.0 
717.451172 136.0 
717.579163 100.0 
717.924927 108.0 
718.03772 160.0 
718.133728 92.0 
718.309753 64.0 
718.475098 136.0 
718.672485 140.0 
719.027344 112.0 
719.106934 164.0 
719.33429 128.0 
719.585144 96.0 
719.638428 152.0 
719.750671 44.0 
719.804077 108.0 
720.119141 88.0 
720.229858 132.0 
720.248901 96.0 
720.260132 160.0 
720.338135 120.0 
720.594543 212.0 
720.701416 144.0 
720.742554 144.0 
720.920532 64.0 
720.984619 188.0 
721.054138 140.0 
721.187744 80.0 
721.291016 160.0 
721.374817 128.0 
721.458679 148.0 
721.513794 48.0 
721.593994 80.0 
721.658142 116.0 
721.829224 152.0 
721.898743 148.0 
721.968262 96.0 
722.011047 124.0 
722.048523 56.0 
722.118042 68.0 
722.251709 84.0 
722.358704 140.0 
722.445984 1048.0 
722.518494 316.0 
722.636902 100.0 
722.781372 92.0 
722.882996 160.0 
723.065002 172.0 
723.129211 72.0 
723.188049 28.0 
723.255798 160.0 
723.359375 116.0 
723.448425 704.0 
723.573486 172.0 
723.744812 136.0 
723.803711 68.0 
724.028625 60.0 
724.119629 80.0 
724.264099 144.0 
724.453186 236.0 
724.515747 160.0 
724.585693 208.0 
724.714539 84.0 
724.957336 200.0 
725.030396 100.0 
725.4552 140.0 
725.577148 52.0 
726.027527 96.0 
726.442444 124.0 
726.571411 120.0 
726.683472 112.0 
726.821411 204.0 
727.086975 148.0 
727.320496 108.0 
727.363464 88.0 
727.658691 100.0 
727.739258 156.0 
727.814392 172.0 
728.233276 64.0 
728.379211 192.0 
728.501831 92.0 
728.611084 120.0 
728.73822 84.0 
728.87793 100.0 
729.020691 108.0 
729.189636 96.0 
729.458374 100.0 
729.72998 92.0 
729.829285 64.0 
729.883057 76.0 
729.953003 172.0 
730.103516 152.0 
730.248779 84.0 
730.318665 116.0 
730.544617 52.0 
730.684448 156.0 
730.765137 172.0 
730.878174 124.0 
730.926575 168.0 
731.063782 160.0 
731.131042 176.0 
731.238708 156.0 
731.319397 120.0 
731.70697 112.0 
731.900818 140.0 
732.180847 124.0 
732.369324 100.0 
732.450134 108.0 
732.525513 148.0 
732.681763 124.0 
732.843384 88.0 
732.999329 64.0 
733.236755 116.0 
733.274475 64.0 
733.312195 88.0 
733.44696 112.0 
733.5224 128.0 
733.667969 80.0 
733.759583 100.0 
734.018433 124.0 
734.428284 156.0 
734.543701 160.0 
734.978516 80.0 
735.089966 104.0 
735.199768 152.0 
735.545166 132.0 
735.62616 136.0 
735.69635 76.0 
735.815125 136.0 
735.90686 100.0 
736.196045 132.0 
736.268677 212.0 
736.403687 192.0 
736.521851 168.0 
736.81958 48.0 
736.873657 124.0 
736.960083 96.0 
737.030334 80.0 
737.14917 68.0 
737.235657 76.0 
737.359924 84.0 
737.53833 132.0 
737.586975 132.0 
737.657227 120.0 
737.820007 104.0 
738.235718 148.0 
738.290405 112.0 
738.581848 72.0 
738.684631 160.0 
738.740112 92.0 
738.846924 96.0 
738.906433 192.0 
739.117432 124.0 
739.604492 96.0 
739.781494 108.0 
740.059204 60.0 
740.210815 64.0 
740.297485 132.0 
740.394958 20.0 
740.487 64.0 
740.573669 80.0 
740.635803 68.0 
740.763245 100.0 
740.844482 172.0 
740.979919 156.0 
741.353821 124.0 
741.402588 48.0 
741.613953 148.0 
741.890381 176.0 
741.998779 132.0 
742.118103 88.0 
742.161438 188.0 
742.463684 104.0 
742.598938 172.0 
742.6875 88.0 
743.130432 164.0 
743.249207 124.0 
743.368225 100.0 
743.425293 124.0 
743.560974 92.0 
743.636963 116.0 
743.826965 124.0 
744.196106 60.0 
744.255798 216.0 
744.394592 200.0 
744.431763 88.0 
744.516479 72.0 
744.625061 112.0 
744.771729 212.0 
745.048767 124.0 
745.597534 108.0 
745.657349 76.0 
745.732056 80.0 
745.967102 164.0 
746.043213 80.0 
746.18457 120.0 
746.353149 76.0 
746.64679 72.0 
746.74469 132.0 
746.819763 104.0 
747.06012 92.0 
747.125427 136.0 
747.288635 148.0 
747.446411 100.0 
747.587891 144.0 
747.734863 184.0 
748.19751 96.0 
748.295471 140.0 
748.371704 96.0 
748.600403 72.0 
748.63855 100.0 
748.692993 164.0 
748.742004 148.0 
748.823669 88.0 
748.932617 136.0 
749.15094 140.0 
749.414612 120.0 
749.46106 80.0 
749.537292 136.0 
749.826111 36.0 
749.880615 192.0 
750.009766 260.0 
750.262207 84.0 
750.420288 116.0 
750.46936 72.0 
750.594788 128.0 
750.856506 92.0 
751.178345 68.0 
751.2547 128.0 
751.342224 168.0 
751.478394 156.0 
751.52063 80.0 
751.592957 204.0 
751.756653 104.0 
752.070251 116.0 
752.138672 64.0 
752.231934 144.0 
752.403381 164.0 
752.509888 156.0 
752.673706 120.0 
752.842957 48.0 
752.946716 76.0 
753.041504 212.0 
753.176086 96.0 
753.214355 40.0 
753.405518 108.0 
753.580383 80.0 
753.897278 80.0 
754.099487 92.0 
754.154114 108.0 
754.200684 124.0 
754.437378 164.0 
754.728394 96.0 
755.395325 144.0 
755.991699 124.0 
756.396729 112.0 
756.559998 164.0 
756.643066 172.0 
756.730652 168.0 
757.168701 160.0 
757.278259 148.0 
757.420654 88.0 
757.535645 52.0 
757.815063 104.0 
758.165771 60.0 
758.204102 92.0 
758.264404 96.0 
758.470276 128.0 
758.604248 112.0 
758.680969 56.0 
758.77417 80.0 
758.889282 168.0 
758.933167 100.0 
758.982544 124.0 
759.114136 76.0 
759.333496 112.0 
759.481567 192.0 
759.525452 140.0 
759.683838 164.0 
759.700684 84.0 
759.758606 116.0 
759.816162 112.0 
759.909302 148.0 
760.024658 120.0 
760.11792 236.0 
760.458191 72.0 
760.672058 128.0 
760.754578 104.0 
761.237732 92.0 
761.358521 144.0 
761.462891 132.0 
761.536072 112.0 
761.743042 128.0 
761.918823 120.0 
761.964478 160.0 
762.056152 100.0 
762.171509 116.0 
762.523254 128.0 
762.765076 132.0 
762.858521 96.0 
762.990417 140.0 
763.050903 132.0 
763.160889 140.0 
763.495056 140.0 
763.592773 140.0 
763.604858 76.0 
763.624817 120.0 
763.666809 100.0 
763.717163 76.0 
763.782288 76.0 
763.872681 152.0 
763.941833 104.0 
764.029846 28.0 
764.150879 76.0 
764.258179 112.0 
764.299438 132.0 
764.413025 172.0 
764.459534 124.0 
764.563538 104.0 
764.668274 156.0 
764.866272 76.0 
764.944275 112.0 
765.031372 164.0 
765.117737 140.0 
765.178772 124.0 
765.217896 132.0 
765.508362 204.0 
765.51709 128.0 
765.541321 104.0 
765.681091 172.0 
765.862854 80.0 
766.012024 48.0 
766.097534 160.0 
766.299866 252.0 
766.347656 136.0 
766.5625 92.0 
766.777466 96.0 
766.848083 108.0 
766.898682 120.0 
767.163269 84.0 
767.22583 172.0 
767.290039 68.0 
767.797363 156.0 
767.858032 116.0 
768.095154 92.0 
768.233093 112.0 
768.359985 132.0 
768.453735 116.0 
768.497864 76.0 
768.580627 68.0 
768.696533 160.0 
768.895203 112.0 
769.044189 140.0 
769.12146 100.0 
769.231873 64.0 
769.419556 96.0 
769.47229 104.0 
769.701111 120.0 
769.839172 64.0 
769.955139 128.0 
770.010376 96.0 
770.082153 60.0 
770.148438 72.0 
770.198181 136.0 
770.250366 120.0 
770.441223 108.0 
770.584839 80.0 
770.667725 136.0 
771.142944 84.0 
771.277466 180.0 
771.336426 60.0 
771.469116 80.0 
771.717896 84.0 
771.784241 136.0 
771.949341 172.0 
772.049622 104.0 
772.198975 120.0 
772.300293 124.0 
772.366394 116.0 
772.442322 104.0 
772.514221 128.0 
772.696777 80.0 
772.785339 116.0 
772.840637 124.0 
772.884888 72.0 
772.977356 136.0 
773.039856 92.0 
773.102234 288.0 
773.477051 144.0 
773.576721 92.0 
773.753845 116.0 
773.925476 76.0 
774.108215 76.0 
774.163574 60.0 
774.258423 156.0 
774.446045 112.0 
774.556824 204.0 
774.606628 120.0 
774.738281 120.0 
774.867004 212.0 
774.97229 120.0 
775.040039 176.0 
775.083313 112.0 
775.171753 124.0 
775.277039 92.0 
775.319275 120.0 
775.476746 248.0 
775.753723 224.0 
775.903381 148.0 
775.964478 96.0 
776.036438 116.0 
776.080811 116.0 
776.180725 164.0 
776.358032 176.0 
776.437622 204.0 
776.502197 148.0 
776.659729 172.0 
776.884949 124.0 
776.952881 100.0 
777.181213 148.0 
777.445312 152.0 
777.511902 168.0 
777.600708 160.0 
777.643005 156.0 
777.793823 96.0 
778.144714 108.0 
778.371643 128.0 
778.500061 72.0 
778.551147 100.0 
779.027222 144.0 
779.111023 144.0 
779.311035 96.0 
779.46106 132.0 
779.599976 84.0 
779.716675 148.0 
779.955688 100.0 
780.216919 144.0 
780.289185 108.0 
780.528259 56.0 
780.661743 152.0 
780.778503 172.0 
780.906433 136.0 
781.089966 96.0 
781.162292 112.0 
781.212341 132.0 
781.496094 128.0 
781.618469 152.0 
782.147217 244.0 
782.26001 188.0 
782.408813 120.0 
782.453369 120.0 
782.570251 148.0 
782.613098 128.0 
782.770691 104.0 
782.88208 132.0 
783.071411 100.0 
783.121582 168.0 
783.466919 136.0 
783.611755 80.0 
783.656311 100.0 
783.773315 72.0 
783.990662 92.0 
784.037292 116.0 
784.107666 64.0 
784.18573 80.0 
784.263733 84.0 
784.430969 80.0 
784.497864 164.0 
784.620483 48.0 
784.775452 132.0 
784.826782 124.0 
785.069397 120.0 
785.153931 144.0 
785.200378 128.0 
785.278503 88.0 
785.378845 124.0 
785.462524 140.0 
785.613159 380.0 
785.652222 92.0 
785.808411 84.0 
785.886536 120.0 
786.182251 204.0 
786.263428 92.0 
786.550598 40.0 
786.658997 164.0 
787.05304 92.0 
787.15979 140.0 
787.734375 128.0 
787.773499 52.0 
788.001892 100.0 
788.056335 120.0 
788.071655 108.0 
788.09375 160.0 
788.181335 96.0 
788.298645 144.0 
788.377686 164.0 
788.427185 56.0 
788.574585 108.0 
788.670532 60.0 
788.907898 108.0 
789.053223 160.0 
789.260071 196.0 
789.485046 148.0 
789.556458 176.0 
789.668335 108.0 
789.713074 80.0 
789.802551 128.0 
789.964783 88.0 
790.104614 136.0 
790.143799 108.0 
790.569031 76.0 
790.697754 132.0 
790.798462 168.0 
790.878845 124.0 
791.083923 156.0 
791.156738 52.0 
791.195923 84.0 
791.279846 36.0 
791.464661 136.0 
791.576599 120.0 
791.627014 80.0 
791.968628 304.0 
792.024658 148.0 
792.177979 160.0 
792.377563 168.0 
792.467224 124.0 
792.853821 96.0 
792.893066 84.0 
793.122864 36.0 
793.17334 120.0 
793.21814 92.0 
793.347107 96.0 
793.495911 168.0 
793.56012 72.0 
793.60498 144.0 
793.767578 236.0 
793.867249 308.0 
793.924561 56.0 
794.036743 160.0 
794.19574 236.0 
794.418152 40.0 
794.530334 116.0 
794.569641 108.0 
794.670593 120.0 
794.737915 144.0 
794.934326 84.0 
794.977905 120.0 
795.102661 104.0 
795.22052 44.0 
795.271057 132.0 
795.338196 112.0 
795.354004 108.0 
795.506775 96.0 
795.602234 96.0 
795.647156 128.0 
795.703308 80.0 
795.869629 108.0 
795.995239 96.0 
796.068237 84.0 
796.113159 152.0 
796.214233 176.0 
796.33783 132.0 
796.427673 56.0 
796.483826 92.0 
796.702942 136.0 
796.822144 88.0 
796.888306 72.0 
796.938904 92.0 
796.996887 148.0 
797.174866 100.0 
797.231079 72.0 
797.310608 132.0 
797.5177 92.0 
797.579529 104.0 
797.708801 108.0 
797.78186 116.0 
798.001099 140.0 
798.045715 124.0 
798.119873 140.0 
798.238281 252.0 
798.389099 132.0 
798.512817 116.0 
798.5578 168.0 
798.602844 152.0 
798.746155 164.0 
798.895325 72.0 
799.092224 168.0 
799.187866 44.0 
799.317261 176.0 
799.598633 108.0 
799.739319 136.0 
799.931763 148.0 
800.054565 84.0 
800.247375 120.0 
800.330444 152.0 
800.386719 260.0 
800.579224 112.0 
800.731567 120.0 
800.803467 148.0 
800.882324 120.0 
801.011841 76.0 
801.085083 148.0 
801.68866 156.0 
801.737488 116.0 
801.8172 116.0 
802.309814 136.0 
802.409424 60.0 
802.78717 128.0 
802.858459 120.0 
802.984558 124.0 
803.063538 92.0 
803.12561 32.0 
803.215637 132.0 
803.33429 140.0 
803.406616 112.0 
803.46405 144.0 
803.689697 276.0 
803.802307 88.0 
804.019104 148.0 
804.14679 144.0 
804.300659 124.0 
804.417725 112.0 
804.688721 120.0 
804.739502 84.0 
804.824219 100.0 
804.908875 140.0 
804.965393 136.0 
805.044434 112.0 
805.134766 184.0 
805.240601 136.0 
805.309875 124.0 
805.502319 100.0 
805.551636 84.0 
805.587952 144.0 
805.637451 92.0 
805.713257 48.0 
805.770752 148.0 
805.863464 112.0 
806.196838 116.0 
806.242004 148.0 
806.304199 120.0 
806.50769 172.0 
806.629517 100.0 
806.931641 96.0 
807.039062 140.0 
807.119934 132.0 
807.203003 96.0 
807.326172 160.0 
807.40094 104.0 
807.446167 116.0 
807.502747 148.0 
807.621521 152.0 
807.666748 100.0 
807.751587 100.0 
807.836487 44.0 
807.922546 72.0 
808.062744 132.0 
808.30603 64.0 
808.453186 136.0 
808.541687 144.0 
808.622925 136.0 
808.736145 84.0 
808.821045 132.0 
808.928589 204.0 
809.285278 56.0 
809.32489 236.0 
809.387146 108.0 
809.485046 128.0 
809.687317 96.0 
809.772217 80.0 
809.841125 152.0 
810.015808 72.0 
810.168762 100.0 
810.219727 108.0 
810.54834 80.0 
810.752319 120.0 
810.877014 140.0 
811.10376 72.0 
811.1604 96.0 
811.523254 112.0 
811.596924 92.0 
811.811035 100.0 
811.98822 140.0 
812.110046 76.0 
812.243469 152.0 
812.382874 180.0 
812.521423 84.0 
812.629211 80.0 
812.717285 100.0 
812.93634 148.0 
813.020752 120.0 
813.065979 136.0 
813.117188 180.0 
813.190979 48.0 
813.327209 56.0 
813.469116 44.0 
813.622375 160.0 
813.735168 148.0 
813.843811 92.0 
813.917603 112.0 
813.985718 80.0 
814.082275 112.0 
814.144714 120.0 
814.298096 88.0 
814.404724 124.0 
814.525269 64.0 
814.78656 80.0 
814.843384 224.0 
814.883179 60.0 
814.937256 144.0 
815.110413 44.0 
815.184326 116.0 
815.26886 116.0 
815.326355 164.0 
815.437134 172.0 
815.634766 76.0 
815.735596 172.0 
815.928894 176.0 
816.304138 80.0 
816.442505 108.0 
816.499084 136.0 
816.862976 108.0 
817.060608 96.0 
817.171204 100.0 
817.236938 108.0 
817.345093 132.0 
817.555603 140.0 
817.66803 172.0 
817.727417 148.0 
817.817383 148.0 
817.994202 140.0 
818.107727 188.0 
818.227234 44.0 
818.309265 124.0 
818.417114 116.0 
818.509216 176.0 
818.597351 120.0 
818.659973 52.0 
818.711243 192.0 
818.984924 92.0 
819.212463 132.0 
819.263733 36.0 
819.308105 132.0 
819.329468 104.0 
819.488342 160.0 
819.634033 156.0 
819.678711 128.0 
819.783997 244.0 
819.854553 108.0 
819.907593 172.0 
819.947449 148.0 
820.021545 108.0 
820.129822 128.0 
820.181152 64.0 
820.249512 124.0 
820.295166 92.0 
820.42627 152.0 
820.477539 108.0 
820.547424 176.0 
820.591553 100.0 
820.66571 140.0 
820.751221 84.0 
820.934204 132.0 
820.985046 136.0 
821.024963 156.0 
821.193176 88.0 
821.272461 176.0 
821.469788 96.0 
821.709412 152.0 
821.859436 68.0 
821.966187 108.0 
822.139526 164.0 
822.188721 44.0 
822.262878 112.0 
822.656738 136.0 
822.753784 152.0 
822.862244 216.0 
822.925049 148.0 
822.965027 136.0 
823.28717 112.0 
823.359009 88.0 
823.581787 100.0 
823.658264 112.0 
824.038757 84.0 
824.407043 92.0 
824.495117 120.0 
824.627319 64.0 
824.70166 96.0 
824.79425 136.0 
824.987427 112.0 
825.084595 108.0 
825.130371 116.0 
825.210388 196.0 
825.35907 108.0 
825.425659 148.0 
825.599243 148.0 
825.67926 100.0 
825.732727 288.0 
825.810852 60.0 
825.883118 100.0 
826.00531 72.0 
826.33136 36.0 
826.445801 208.0 
826.55719 164.0 
826.64032 64.0 
826.886414 128.0 
826.949402 116.0 
827.06958 112.0 
827.44165 108.0 
827.590515 104.0 
827.630615 104.0 
827.670654 44.0 
827.756531 68.0 
827.871094 108.0 
827.91687 164.0 
827.979919 116.0 
828.019958 120.0 
828.266235 160.0 
828.336121 144.0 
828.415222 68.0 
828.466736 88.0 
828.62146 80.0 
828.6875 112.0 
828.793335 208.0 
828.856323 112.0 
828.960999 136.0 
829.086853 72.0 
829.248901 144.0 
829.383606 132.0 
829.492493 128.0 
829.588928 124.0 
829.790588 100.0 
829.916687 148.0 
830.083008 104.0 
830.123108 112.0 
830.193298 100.0 
830.318115 156.0 
830.472961 96.0 
830.70813 104.0 
830.766113 184.0 
830.860657 116.0 
831.100342 120.0 
831.145996 152.0 
831.184326 196.0 
831.247437 140.0 
831.293335 80.0 
831.454041 72.0 
831.511414 96.0 
831.626221 136.0 
831.718018 72.0 
831.907471 116.0 
831.987854 68.0 
832.111206 112.0 
832.240417 76.0 
832.480469 164.0 
832.584961 88.0 
832.872131 136.0 
832.929565 48.0 
833.021484 124.0 
833.285767 100.0 
833.36615 68.0 
833.578796 100.0 
833.820129 156.0 
833.884033 132.0 
833.940796 116.0 
834.009766 72.0 
834.153503 100.0 
834.196167 128.0 
834.268433 84.0 
834.383423 196.0 
834.460815 96.0 
834.702393 152.0 
834.719238 120.0 
834.81543 124.0 
834.860657 60.0 
834.912415 48.0 
834.964844 136.0 
835.010193 196.0 
835.142456 132.0 
835.188477 88.0 
835.352356 156.0 
835.545166 116.0 
835.694702 52.0 
835.899048 164.0 
835.959412 124.0 
836.132019 40.0 
836.208801 192.0 
836.365112 224.0 
836.408325 204.0 
836.605347 156.0 
836.926453 84.0 
836.994263 148.0 
837.076111 132.0 
837.222534 116.0 
837.280884 168.0 
837.317993 208.0 
837.392883 64.0 
837.446838 120.0 
837.467224 44.0 
837.482849 116.0 
837.605957 128.0 
837.733093 160.0 
837.819092 84.0 
837.888245 120.0 
837.968872 120.0 
838.032288 112.0 
838.094971 100.0 
838.170532 132.0 
838.239685 136.0 
838.331909 48.0 
838.383789 128.0 
838.447144 116.0 
838.522095 96.0 
838.602783 76.0 
838.72052 56.0 
838.742737 128.0 
838.769165 92.0 
838.782043 116.0 
838.86792 252.0 
838.997498 256.0 
839.021301 124.0 
839.033203 208.0 
839.07959 112.0 
839.721252 88.0 
839.767395 128.0 
839.908691 128.0 
840.009644 180.0 
840.107727 36.0 
840.211365 132.0 
840.269226 76.0 
840.370422 68.0 
840.407715 144.0 
840.607361 100.0 
840.888855 96.0 
841.025208 64.0 
841.105652 144.0 
841.18103 212.0 
841.219849 208.0 
841.394653 112.0 
841.492798 72.0 
841.573608 136.0 
841.701233 184.0 
841.804565 116.0 
841.862305 132.0 
841.96051 80.0 
842.081787 136.0 
842.156433 120.0 
842.514954 92.0 
842.572754 84.0 
842.707581 164.0 
842.757629 52.0 
842.852844 208.0 
842.930969 156.0 
842.973206 180.0 
843.052307 124.0 
843.110107 80.0 
843.167908 60.0 
843.233887 124.0 
843.289246 104.0 
843.341309 128.0 
843.495605 132.0 
843.584045 116.0 
843.672424 124.0 
843.728577 68.0 
843.821167 156.0 
844.125 124.0 
844.165527 132.0 
844.22583 160.0 
844.318359 160.0 
844.434021 200.0 
844.555481 76.0 
844.676941 36.0 
844.786865 136.0 
845.036438 112.0 
845.060852 88.0 
845.102539 92.0 
845.174438 168.0 
845.230835 136.0 
845.313354 136.0 
845.359619 52.0 
845.423279 120.0 
845.48114 120.0 
845.910645 116.0 
845.958984 164.0 
846.065735 36.0 
846.158386 120.0 
846.291626 116.0 
846.430481 112.0 
846.569458 188.0 
846.642212 148.0 
846.685303 52.0 
846.754822 52.0 
847.015442 176.0 
847.089355 100.0 
847.189209 260.0 
847.241333 176.0 
847.339844 124.0 
847.415161 164.0 
847.51947 140.0 
847.644714 128.0 
847.881592 184.0 
848.023621 144.0 
848.075745 76.0 
848.255432 132.0 
848.318481 128.0 
848.378723 136.0 
848.429382 124.0 
848.603271 144.0 
848.677979 172.0 
848.779724 84.0 
848.85083 192.0 
848.95697 124.0 
848.99469 120.0 
849.084534 200.0 
849.165771 140.0 
849.281738 28.0 
849.473145 116.0 
849.58551 228.0 
849.626526 128.0 
849.695801 136.0 
849.838623 180.0 
849.966309 68.0 
850.127441 124.0 
850.198425 136.0 
850.314453 76.0 
850.442139 96.0 
850.506042 128.0 
850.554932 132.0 
850.622131 112.0 
850.709167 184.0 
850.752014 252.0 
850.854309 280.0 
850.900757 140.0 
850.941406 104.0 
850.982056 112.0 
851.045898 140.0 
851.184448 116.0 
851.201721 100.0 
851.283936 160.0 
851.324585 132.0 
851.452393 64.0 
851.527222 104.0 
851.652283 104.0 
851.73114 104.0 
851.777649 128.0 
851.951904 136.0 
852.079712 92.0 
852.18219 100.0 
852.444946 260.0 
852.527588 96.0 
852.684021 64.0 
852.72467 124.0 
852.817688 184.0 
852.982178 80.0 
853.038574 164.0 
853.146057 124.0 
853.183899 156.0 
853.254089 112.0 
853.325623 104.0 
853.448425 148.0 
853.492004 184.0 
853.581543 204.0 
853.744324 164.0 
853.785278 112.0 
853.862244 96.0 
853.953979 164.0 
854.078003 68.0 
854.156738 136.0 
854.35144 156.0 
854.463806 96.0 
854.515076 120.0 
854.677551 116.0 
854.736755 128.0 
854.794434 168.0 
854.876404 120.0 
854.922974 124.0 
854.96698 208.0 
855.002869 60.0 
855.065552 152.0 
855.160034 104.0 
855.23999 60.0 
855.313477 96.0 
855.373779 96.0 
855.450439 148.0 
855.519897 96.0 
855.631897 96.0 
855.683899 128.0 
855.732056 64.0 
855.772827 108.0 
855.835022 152.0 
855.912109 140.0 
855.985046 132.0 
856.003357 128.0 
856.019958 80.0 
856.087219 52.0 
856.138 160.0 
856.203552 140.0 
856.267761 64.0 
856.356262 144.0 
856.430847 36.0 
856.473816 116.0 
856.534241 168.0 
856.608887 128.0 
856.743042 152.0 
856.80365 116.0 
856.940613 288.0 
857.031006 220.0 
857.1474 92.0 
857.304871 212.0 
857.360535 104.0 
857.548157 68.0 
857.6651 132.0 
857.765137 124.0 
857.807983 220.0 
857.89386 100.0 
858.037109 104.0 
858.086243 148.0 
858.149902 128.0 
858.197388 144.0 
858.332397 248.0 
858.415344 108.0 
858.434814 56.0 
858.455688 100.0 
858.505615 252.0 
858.567444 60.0 
858.659668 144.0 
858.746155 80.0 
858.791016 124.0 
858.849121 160.0 
858.914551 168.0 
859.025574 108.0 
859.148438 168.0 
859.230896 392.0 
859.348511 276.0 
859.423706 160.0 
859.512756 152.0 
859.566284 140.0 
859.659607 96.0 
859.719299 152.0 
859.80542 148.0 
859.839233 152.0 
859.922729 92.0 
860.003784 120.0 
860.108276 108.0 
860.190674 88.0 
860.24884 200.0 
860.340454 152.0 
860.413574 360.0 
860.485596 132.0 
860.554016 72.0 
860.60437 76.0 
860.6604 176.0 
860.717773 372.0 
860.777283 120.0 
860.896545 288.0 
860.975891 100.0 
861.020813 64.0 
861.087341 92.0 
861.154724 128.0 
861.206482 204.0 
861.224731 160.0 
861.269714 136.0 
861.373779 156.0 
861.455872 144.0 
861.519653 192.0 
861.641785 128.0 
861.713257 52.0 
861.852966 88.0 
861.907166 172.0 
861.945068 92.0 
862.122559 120.0 
862.235168 124.0 
862.358337 272.0 
862.459045 48.0 
862.532715 104.0 
862.603027 60.0 
862.67981 296.0 
862.75 144.0 
862.798157 180.0 
862.933044 160.0 
863.009338 112.0 
863.073242 136.0 
863.118652 56.0 
863.221008 320.0 
863.243835 296.0 
863.332581 68.0 
863.412415 236.0 
863.496521 244.0 
863.592834 208.0 
863.65332 96.0 
863.699829 232.0 
863.768982 388.0 
863.810974 184.0 
863.872498 328.0 
863.959167 252.0 
864.057251 376.0 
864.126221 176.0 
864.200378 256.0 
864.320801 256.0 
864.422119 124.0 
864.510742 348.0 
864.567627 140.0 
864.664429 240.0 
864.749512 208.0 
864.81311 164.0 
864.880249 112.0 
864.935669 460.0 
864.977966 116.0 
865.062195 332.0 
865.14563 304.0 
865.210999 156.0 
865.267944 156.0 
865.341187 268.0 
865.420776 192.0 
865.480835 152.0 
865.572144 120.0 
865.583984 232.0 
865.684143 268.0 
865.723206 220.0 
865.829163 248.0 
865.899231 412.0 
865.985657 492.0 
866.074158 592.0 
866.128723 296.0 
866.212097 396.0 
866.330444 148.0 
866.490356 908.0 
866.626038 224.0 
866.692932 340.0 
866.741821 360.0 
866.833496 536.0 
866.890137 96.0 
866.937683 348.0 
866.976013 324.0 
867.035156 332.0 
867.120972 448.0 
867.160767 412.0 
867.209351 316.0 
867.250305 408.0 
867.328369 440.0 
867.382874 728.0 
867.477661 620.0 
867.508606 716.0 
867.578552 676.0 
867.60199 420.0 
867.62439 508.0 
867.668823 528.0 
867.728516 544.0 
867.776123 436.0 
867.87854 848.0 
867.960754 464.0 
868.030457 528.0 
868.077332 684.0 
868.177551 1004.0 
868.192505 760.0 
868.270447 908.0 
868.506348 443924.0 
868.707336 720.0 
868.894287 448.0 
868.935181 620.0 
869.065796 448.0 
869.138184 584.0 
869.153076 472.0 
869.250366 1064.0 
869.388428 1096.0 
869.509705 260540.0 
869.663025 628.0 
869.722473 360.0 
869.80896 340.0 
869.853271 412.0 
869.905212 472.0 
869.947144 664.0 
869.972412 628.0 
870.012817 688.0 
870.047852 540.0 
870.065796 752.0 
870.105225 656.0 
870.127747 640.0 
870.214111 380.0 
870.264282 392.0 
870.30658 496.0 
870.382629 632.0 
870.508362 60940.0 
870.700378 312.0 
870.798523 216.0 
870.879028 416.0 
870.97345 572.0 
871.016541 408.0 
871.103394 352.0 
871.185303 568.0 
871.300476 472.0 
871.393066 508.0 
871.511597 13304.0 
871.65802 256.0 
871.670288 212.0 
871.698425 224.0 
871.718018 280.0 
871.798645 296.0 
871.867737 412.0 
871.934509 184.0 
871.947815 384.0 
872.037109 468.0 
872.123657 332.0 
872.163757 144.0 
872.189148 184.0 
872.264038 240.0 
872.305725 268.0 
872.375 308.0 
872.399414 240.0 
872.418884 336.0 
872.513184 2360.0 
872.634033 216.0 
872.713928 320.0 
872.753845 408.0 
872.83667 244.0 
872.907227 152.0 
872.941772 216.0 
872.988586 280.0 
873.085938 168.0 
873.201477 344.0 
873.224548 160.0 
873.261292 408.0 
873.375427 656.0 
873.515198 452.0 
873.565247 400.0 
873.61145 372.0 
873.675903 484.0 
873.80072 296.0 
873.861145 228.0 
873.900391 376.0 
873.928528 512.0 
873.948425 512.0 
873.969299 376.0 
873.99054 648.0 
874.01825 480.0 
874.03009 232.0 
874.082458 228.0 
874.141602 228.0 
874.227844 344.0 
874.331421 284.0 
874.437195 160.0 
874.478455 208.0 
874.540588 280.0 
874.663696 228.0 
874.721497 236.0 
874.734985 180.0 
874.755798 204.0 
874.799622 112.0 
874.908569 196.0 
874.940125 232.0 
874.949768 220.0 
875.003113 320.0 
875.050049 248.0 
875.075867 152.0 
875.162231 332.0 
875.2146 188.0 
875.327637 92.0 
875.400391 132.0 
875.460449 232.0 
875.51593 96.0 
875.612122 212.0 
875.739441 156.0 
875.776794 140.0 
875.840637 212.0 
875.904236 268.0 
875.999023 220.0 
876.108948 80.0 
876.150208 164.0 
876.228149 208.0 
876.326294 124.0 
876.385925 192.0 
876.435791 172.0 
876.479614 148.0 
876.582947 116.0 
876.710083 140.0 
876.800232 84.0 
876.818298 124.0 
876.835388 112.0 
876.916687 184.0 
876.992676 124.0 
877.036316 44.0 
877.071838 116.0 
877.222412 68.0 
877.317688 212.0 
877.431824 112.0 
877.503967 144.0 
877.543884 92.0 
877.560913 56.0 
877.583801 104.0 
877.674133 192.0 
877.783569 84.0 
877.838257 72.0 
877.920715 180.0 
877.984924 104.0 
878.040222 92.0 
878.125366 128.0 
878.228394 128.0 
878.352234 116.0 
878.451843 56.0 
878.520325 60.0 
878.587585 44.0 
878.665771 44.0 
878.711243 104.0 
878.763489 84.0 
878.826599 116.0 
878.87854 68.0 
878.929016 44.0 
879.00177 44.0 
879.071289 108.0 
879.2276 148.0 
879.27594 112.0 
879.372437 72.0 
879.435791 176.0 
879.509277 52.0 
879.578125 92.0 
879.630615 80.0 
879.718567 80.0 
879.816284 40.0 
879.931152 148.0 
880.005188 100.0 
880.117371 32.0 
880.194702 68.0 
880.416199 88.0 
880.518921 72.0 
880.605896 88.0 
880.673462 56.0 
880.766968 28.0 
880.831909 92.0 
881.003418 128.0 
881.066589 52.0 
881.140015 96.0 
881.262085 192.0 
881.323242 124.0 
881.387268 44.0 
881.44635 116.0 
881.499512 104.0 
881.559021 64.0 
881.634399 92.0 
881.771362 40.0 
881.832642 132.0 
881.901428 40.0 
881.969055 80.0 
882.084351 144.0 
882.163574 68.0 
882.279358 64.0 
882.321533 112.0 
882.373535 60.0 
882.392944 52.0 
882.459961 96.0 
882.611023 100.0 
882.684265 76.0 
882.83551 40.0 
882.897339 52.0 
882.947876 116.0 
883.007019 28.0 
883.087585 112.0 
883.125549 124.0 
883.190369 36.0 
883.247314 84.0 
883.335754 64.0 
883.40918 108.0 
883.512512 164.0 
883.559875 60.0 
883.661377 108.0 
883.725952 96.0 
883.846985 44.0 
884.000854 48.0 
884.048218 48.0 
884.190247 56.0 
884.515747 92.0 
884.565979 124.0 
884.805786 56.0 
884.955078 260.0 
885.125549 92.0 
885.220276 32.0 
885.309082 56.0 
885.368286 60.0 
885.433472 72.0 
885.554871 44.0 
885.593384 72.0 
885.759216 40.0 
885.901367 60.0 
885.948792 40.0 
886.145752 48.0 
886.387207 36.0 
886.42865 164.0 
886.496033 76.0 
886.545288 76.0 
886.707214 56.0 
886.854309 48.0 
887.013977 100.0 
887.043091 136.0 
887.205078 44.0 
887.282166 40.0 
887.455505 168.0 
887.512817 88.0 
887.766846 108.0 
887.827637 80.0 
887.975952 92.0 
888.05304 212.0 
888.094543 164.0 
888.16571 48.0 
888.219116 116.0 
888.302124 120.0 
888.35553 88.0 
888.420776 64.0 
888.509766 56.0 
888.55127 100.0 
888.658203 176.0 
888.723022 68.0 
888.818298 32.0 
888.960693 116.0 
889.070251 104.0 
889.170471 128.0 
889.221802 120.0 
889.335083 48.0 
889.424255 76.0 
889.474548 132.0 
889.623718 124.0 
889.648621 88.0 
889.668396 116.0 
889.711487 68.0 
889.797607 32.0 
889.880737 48.0 
889.999451 52.0 
890.137573 136.0 
890.207275 88.0 
890.266663 136.0 
890.450745 92.0 
890.510132 36.0 
890.578064 104.0 
890.68158 56.0 
890.741821 60.0 
890.791687 84.0 
890.89624 52.0 
891.118164 124.0 
891.181396 72.0 
891.223022 52.0 
891.269653 108.0 
891.502258 48.0 
891.580627 140.0 
891.680542 164.0 
891.820679 68.0 
891.845764 64.0 
891.859253 96.0 
891.971802 48.0 
892.14801 112.0 
892.227417 44.0 
892.269043 72.0 
892.33844 124.0 
892.434509 196.0 
892.522766 160.0 
892.729187 68.0 
892.779602 124.0 
892.937256 84.0 
893.071777 88.0 
893.141785 100.0 
893.150085 168.0 
893.259644 104.0 
893.387451 124.0 
893.459656 60.0 
893.517944 80.0 
893.592712 112.0 
893.779724 40.0 
893.85376 76.0 
893.955383 168.0 
894.085205 184.0 
894.133362 120.0 
894.230347 116.0 
894.24646 84.0 
894.345093 72.0 
894.386719 68.0 
894.440308 76.0 
894.496277 120.0 
894.624817 56.0 
894.808899 96.0 
894.901123 88.0 
894.952271 52.0 
895.077332 96.0 
895.30957 64.0 
895.425171 144.0 
895.651672 108.0 
896.030273 148.0 
896.283813 100.0 
896.673279 44.0 
896.733398 132.0 
896.781067 56.0 
896.834717 132.0 
896.878967 72.0 
896.979614 104.0 
897.049011 88.0 
897.132751 36.0 
897.240051 124.0 
897.293701 72.0 
897.353333 76.0 
897.643311 44.0 
897.729004 100.0 
898.215881 100.0 
898.48645 128.0 
898.691528 76.0 
898.892212 96.0 
899.42334 36.0 
899.558228 80.0 
899.645142 100.0 
900.205444 84.0 
900.271118 28.0 
900.336792 28.0 
900.426392 80.0 
900.521973 96.0 
900.624023 168.0 
900.778809 44.0 
900.859009 92.0 
900.940063 108.0 
901.14917 84.0 
901.19696 44.0 
901.9021 56.0 
902.009705 60.0 
902.153198 52.0 
902.338501 64.0 
902.50592 52.0 
902.978333 64.0 
903.223511 64.0 
903.468811 76.0 
903.576477 48.0 
903.63031 72.0 
903.720093 92.0 
903.83374 60.0 
903.887573 116.0 
904.055176 68.0 
904.222717 28.0 
904.336426 68.0 
904.420227 124.0 
904.569885 108.0 
904.964966 48.0 
905.240417 56.0 
905.28833 36.0 
905.522461 84.0 
905.83075 84.0 
906.019043 48.0 
906.492371 48.0 
907.103699 76.0 
907.903748 60.0 
907.983276 188.0 
908.062988 84.0 
908.533264 60.0 
908.968872 48.0 
909.100891 76.0 
909.184875 32.0 
909.310913 144.0 
909.352905 60.0 
909.96521 64.0 
910.253418 84.0 
910.637756 36.0 
910.751831 40.0 
911.425537 56.0 
911.520813 76.0 
911.659058 92.0 
913.25824 48.0 
913.318359 84.0 
913.693726 84.0 
913.763489 88.0 
913.835693 100.0 
914.226807 60.0 
914.311096 72.0 
914.359192 28.0 
914.437439 80.0 
914.626526 88.0 
914.762512 48.0 
915.707825 108.0 
917.189941 96.0 
917.473267 68.0 
918.480286 104.0 
919.101685 152.0 
919.75946 92.0 
920.248474 56.0 
920.477905 108.0 
920.518066 68.0 
920.610779 128.0 
920.69635 68.0 
921.214722 120.0 
921.583252 80.0 
921.649719 108.0 
921.806824 80.0 
922.380981 132.0 
922.556274 92.0 
923.197144 68.0 
923.487427 76.0 
923.578186 48.0 
923.680969 28.0 
925.000122 48.0 
925.327026 64.0 
925.375427 96.0 
925.448059 48.0 
925.817444 88.0 
926.277771 40.0 
926.513977 68.0 
927.132019 108.0 
927.235046 88.0 
928.283813 48.0 
928.714417 68.0 
928.920593 52.0 
929.703308 56.0 
932.563721 76.0 
932.794739 40.0 
933.90741 100.0 
934.345398 92.0 
934.935608 68.0 
935.288574 92.0 
935.416443 156.0 
935.927795 96.0 
936.128784 80.0 
936.220093 100.0 
936.392151 96.0 
938.779541 140.0 
939.993408 36.0 
941.104309 64.0 
942.441895 92.0 
942.527466 104.0 
943.016357 92.0 
945.85437 96.0 
946.42981 100.0 
951.358948 48.0 
953.650085 52.0 
954.086548 116.0 
955.051941 52.0 
955.704041 32.0 
956.694885 120.0 
957.039673 104.0 
957.095093 76.0 
958.264526 164.0 
959.867798 60.0 
960.120667 64.0 
961.85437 68.0 
963.231323 76.0 
963.552551 92.0 
963.941833 84.0 
964.677246 32.0 
966.842041 60.0 
967.851013 104.0 
969.461548 140.0 
970.236328 100.0 
971.197449 52.0 
972.084595 32.0 
972.531433 116.0 
972.792114 76.0 
974.33844 76.0 
974.922485 60.0 
977.602722 116.0 
977.951233 124.0 
979.408142 68.0 
980.242981 48.0 
980.292847 88.0 
983.554565 56.0 
984.322449 68.0 
984.94696 120.0 
985.115601 60.0 
985.346802 68.0 
985.453003 84.0 
990.319763 84.0 
991.046448 44.0 
991.397339 64.0 
991.552979 100.0 
995.481079 64.0 
996.046326 44.0 
997.830994 132.0 
998.063965 76.0 
998.613892 20.0 
999.113953 48.0 
999.258667 84.0 
1000.02002 112.0 
1002.255615 68.0 
1003.030762 44.0 
1003.339661 120.0 
1004.304443 60.0 
1005.812439 92.0 
1005.89447 68.0 
1010.223022 72.0 
1010.659546 76.0 
1011.374634 52.0 
1011.482239 60.0 
1011.55188 52.0 
1011.862061 92.0 
1012.678955 116.0 
1012.900635 56.0 
1018.126709 60.0 
1018.689575 52.0 
1019.193909 124.0 
1019.638733 68.0 
1019.683228 76.0 
1020.13446 48.0 
1021.578003 92.0 
1022.220581 60.0 
1022.366943 84.0 
1022.53241 76.0 
1023.46814 52.0 
1023.856567 84.0 
1024.219604 80.0 
1024.557251 32.0 
1025.474854 128.0 
1026.437378 84.0 
1028.204468 44.0 
1028.395874 76.0 
1029.244995 132.0 
1029.90271 64.0 
1031.570435 84.0 
1032.337646 84.0 
1032.478394 124.0 
1032.567871 92.0 
1033.335449 144.0 
1033.629761 28.0 
1034.621826 108.0 
1035.102051 132.0 
1036.005005 56.0 
1037.363647 68.0 
1037.966187 80.0 
1039.788086 132.0 
1040.603271 68.0 
1041.181152 80.0 
1041.395752 160.0 
1042.928711 56.0 
1043.513672 188.0 
1044.529785 68.0 
1044.890015 72.0 
1045.276001 44.0 
1046.44104 80.0 
1047.239502 56.0 
1047.632446 44.0 
1048.231567 52.0 
1048.437866 80.0 
1048.49585 80.0 
1048.966309 116.0 
1050.178589 104.0 
1050.417603 56.0 
1051.785156 108.0 
1051.914185 120.0 
1053.515625 100.0 
1053.709473 116.0 
1054.458984 72.0 
1055.545044 92.0 
1058.689941 76.0 
1058.787109 92.0 
1059.221069 72.0 
1059.344116 108.0 
1059.797607 56.0 
1060.841064 36.0 
1061.217041 96.0 
1061.291138 76.0 
1061.411499 92.0 
1062.202759 68.0 
1063.143555 108.0 
1063.318726 32.0 
1063.558838 48.0 
1063.864014 100.0 
1064.500244 56.0 
1065.799316 52.0 
1066.410156 36.0 
1067.964111 36.0 
1068.341431 144.0 
1068.660156 80.0 
1069.08313 104.0 
1070.293823 176.0 
1070.424072 76.0 
1072.301392 96.0 
1073.32373 52.0 
1073.382324 84.0 
1073.643188 72.0 
1074.19104 36.0 
1074.432495 112.0 
1075.208862 80.0 
1075.75061 92.0 
1076.893311 168.0 
1077.213379 64.0 
1077.324463 84.0 
1077.55957 96.0 
1078.078003 140.0 
1078.382935 76.0 
1079.219727 124.0 
1079.625122 124.0 
1080.063232 72.0 
1080.187622 112.0 
1080.560425 80.0 
1082.078857 104.0 
1082.775757 84.0 
1083.034912 136.0 
1083.190186 28.0 
1084.54187 48.0 
1084.614014 56.0 
1085.308838 64.0 
1085.472778 80.0 
1085.763672 144.0 
1086.25293 108.0 
1088.317749 48.0 
1089.469727 76.0 
1090.652588 44.0 
1091.388916 120.0 
1092.217407 184.0 
1092.533203 76.0 
1092.664795 68.0 
1093.121826 128.0 
1093.428101 124.0 
1094.145508 124.0 
1094.955444 104.0 
1097.006592 80.0 
1097.690186 116.0 
1097.769409 92.0 
1098.620239 92.0 
1098.956665 60.0 
1099.213989 64.0 
1100.03894 96.0 
1100.635498 156.0 
1101.227417 36.0 
1101.600708 100.0 
1102.211792 92.0 
1103.077515 108.0 
1103.533691 128.0 
1103.665894 84.0 
1103.758545 120.0 
1104.241211 108.0 
1104.810059 92.0 
1105.081299 84.0 
1105.683472 108.0 
1106.577026 112.0 
1107.206177 48.0 
1107.457764 84.0 
1107.630005 96.0 
1107.848633 76.0 
1109.028076 108.0 
1109.837769 60.0 
1110.155151 104.0 
1110.427002 48.0 
1110.639282 28.0 
1111.587891 60.0 
1112.218384 88.0 
1112.630005 60.0 
1113.592773 88.0 
1114.50293 96.0 
1115.792236 116.0 
1116.031616 100.0 
1116.896118 40.0 
1117.388428 52.0 
1118.033813 76.0 
1119.604858 96.0 
1119.764771 132.0 
1121.416992 104.0 
1121.490356 84.0 
1122.050293 76.0 
1122.82373 64.0 
1123.644165 68.0 
1124.251343 88.0 
1124.378174 88.0 
1125.366089 112.0 
1125.49292 64.0 
1125.746704 108.0 
1125.793457 52.0 
1126.174072 36.0 
1126.627319 52.0 
1127.015747 92.0 
1128.278931 84.0 
1128.720215 84.0 
1128.780396 96.0 
1128.887451 108.0 
1128.947632 104.0 
1129.088013 92.0 
1129.275269 68.0 
1129.884033 88.0 
1130.392456 72.0 
1130.901123 44.0 
1131.416504 80.0 
1132.327148 64.0 
1133.492798 100.0 
1134.236694 124.0 
1134.498047 68.0 
1134.860107 52.0 
1135.24231 64.0 
1135.577637 108.0 
1136.630859 88.0 
1137.127441 64.0 
1138.970703 112.0 
1139.551514 100.0 
1139.813599 80.0 
1139.946777 112.0 
1140.929321 44.0 
1141.339355 124.0 
1141.386475 88.0 
1141.480591 88.0 
1141.648682 92.0 
1142.267456 72.0 
1143.195923 44.0 
1143.25647 72.0 
1143.882446 80.0 
1144.138184 48.0 
1144.360352 52.0 
1144.743896 80.0 
1145.381104 140.0 
1146.145264 48.0 
1146.46875 88.0 
1146.643921 56.0 
1147.007812 52.0 
1147.938232 92.0 
1148.983643 128.0 
1149.064697 32.0 
1150.009399 96.0 
1150.225342 112.0 
1150.438965 56.0 
1150.522339 32.0 
1150.716064 44.0 
1151.920166 72.0 
1152.555298 92.0 
1153.021484 104.0 
1154.001709 68.0 
1154.17749 120.0 
1154.420898 104.0 
1154.799561 64.0 
1154.853638 96.0 
1155.145752 92.0 
1155.245972 96.0 
1155.821045 68.0 
1155.949585 40.0 
1156.057861 92.0 
1157.513306 64.0 
1157.72998 76.0 
1158.434326 108.0 
1158.515625 100.0 
1158.651123 80.0 
1158.800171 92.0 
1159.301636 44.0 
1159.572632 164.0 
1160.908203 88.0 
1161.192993 108.0 
1162.393799 40.0 
1162.91626 68.0 
1163.500122 104.0 
1164.124756 56.0 
1164.342041 68.0 
1166.489014 120.0 
1166.924072 68.0 
1167.019287 100.0 
1167.241699 188.0 
1168.087036 140.0 
1168.789429 140.0 
1169.406982 84.0 
1170.755005 68.0 
1171.272583 68.0 
1171.831177 48.0 
1172.076416 100.0 
1172.280884 168.0 
1172.730713 64.0 
1172.791992 76.0 
1175.963501 56.0 
1176.803101 124.0 
1177.132324 76.0 
1177.827515 104.0 
1177.984619 124.0 
1178.271484 44.0 
1178.353516 72.0 
1178.5448 72.0 
1178.941162 88.0 
1179.81604 100.0 
1179.898071 88.0 
1181.101562 60.0 
1181.412842 96.0 
1182.319336 48.0 
1182.797241 92.0 
1183.298218 188.0 
1184.708984 84.0 
1185.119995 40.0 
1185.887573 80.0 
1186.88147 84.0 
1186.929565 64.0 
1187.443848 104.0 
1187.779907 196.0 
1188.033203 108.0 
1188.246338 120.0 
1188.541382 56.0 
1189.049194 36.0 
1189.316895 48.0 
1190.092651 80.0 
1191.328857 108.0 
1191.521118 136.0 
1191.768433 104.0 
1191.850952 156.0 
1192.142578 64.0 
1192.270142 100.0 
1192.524414 76.0 
1192.991821 112.0 
1193.259888 188.0 
1193.356201 64.0 
1193.84436 52.0 
1194.105713 56.0 
1194.222656 52.0 
1194.931152 56.0 
1195.853271 100.0 
1196.59668 76.0 
1196.755005 108.0 
1197.574463 80.0 
1198.070435 96.0 
1198.828369 88.0 
1199.145264 140.0 
1199.48999 84.0 
1200.855103 108.0 
1201.151733 60.0 
1201.827759 128.0 
1202.076172 48.0 
1202.959595 40.0 
1203.401489 76.0 
1203.629272 120.0 
1203.746704 92.0 
1205.425171 68.0 
1205.508179 64.0 
1205.895142 104.0 
1205.943481 224.0 
1206.054077 116.0 
1206.62793 44.0 
1206.828369 44.0 
1206.932129 160.0 
1208.723511 128.0 
1208.785889 80.0 
1209.096191 56.0 
1209.727051 64.0 
1210.380981 72.0 
1211.172485 76.0 
1211.800781 64.0 
1212.140625 180.0 
1213.253174 124.0 
1213.357056 64.0 
1213.40564 84.0 
1213.752319 72.0 
1214.092041 108.0 
1214.433228 84.0 
1214.973022 88.0 
1215.583496 64.0 
1216.326172 104.0 
1216.548218 160.0 
1217.173096 120.0 
1218.082886 64.0 
1218.722046 72.0 
1219.368286 32.0 
1219.465576 84.0 
1219.625366 56.0 
1220.04248 60.0 
1220.098145 64.0 
1220.181519 92.0 
1220.515259 80.0 
1220.828125 92.0 
1221.273315 44.0 
1221.474976 32.0 
1221.668091 64.0 
1222.302856 112.0 
1222.873535 96.0 
1223.054443 96.0 
1223.813232 144.0 
1224.92749 52.0 
1225.568481 196.0 
1225.972656 80.0 
1226.132935 172.0 
1227.722412 72.0 
1228.887207 48.0 
1230.890381 40.0 
1231.260498 72.0 
1231.689697 116.0 
1231.896118 60.0 
1232.056763 56.0 
1232.769531 132.0 
1232.888306 128.0 
1233.0979 68.0 
1233.328613 80.0 
1234.726929 96.0 
1237.175781 44.0 
1238.6604 56.0 
1240.348999 72.0 
1240.412109 80.0 
1241.078125 132.0 
1241.365601 64.0 
1241.919678 48.0 
1242.529907 100.0 
1242.628174 44.0 
1242.677246 76.0 
1243.224609 44.0 
1243.750977 100.0 
1243.919434 84.0 
1244.558228 128.0 
1245.363159 128.0 
1245.745117 116.0 
1246.082275 44.0 
1247.052002 80.0 
1247.136353 52.0 
1247.382446 48.0 
1248.240112 112.0 
1249.077026 76.0 
1249.604614 56.0 
1250.723511 64.0 
1250.94873 132.0 
1251.709106 116.0 
1253.949341 76.0 
1256.417236 88.0 
1256.685303 76.0 
1256.988647 72.0 
1257.320312 60.0 
1258.054443 92.0 
1258.97937 40.0 
1259.162964 216.0 
1259.374878 136.0 
1259.501953 96.0 
1259.862183 92.0 
1260.109497 52.0 
1260.187256 40.0 
1260.314453 92.0 
1260.611206 120.0 
1262.328857 72.0 
1262.675415 132.0 
1262.781494 48.0 
1262.944214 100.0 
1263.604004 132.0 
1263.75769 80.0 
1265.5271 52.0 
1267.637939 48.0 
1268.176514 68.0 
1268.36792 36.0 
1268.559204 152.0 
1269.062622 84.0 
1270.502319 52.0 
1270.814453 80.0 
1271.39624 56.0 
1271.836304 64.0 
1273.16394 124.0 
1273.362793 156.0 
1273.817383 72.0 
1274.59668 80.0 
1275.089233 48.0 
1275.164429 116.0 
1275.366333 68.0 
1275.423218 96.0 
1275.529907 112.0 
1275.871094 48.0 
1276.262085 96.0 
1276.887817 88.0 
1278.161255 56.0 
1278.275024 68.0 
1278.962769 88.0 
1279.207397 56.0 
1279.940674 80.0 
1280.845093 108.0 
1281.263184 64.0 
1281.396362 136.0 
1282.854614 92.0 
1283.660278 112.0 
1284.380493 48.0 
1284.537476 68.0 
1285.06543 100.0 
1285.721802 72.0 
1285.828857 80.0 
1286.528442 52.0 
1287.385132 64.0 
1289.249634 48.0 
1289.614136 96.0 
1289.735596 124.0 
1290.260498 124.0 
1290.80542 220.0 
1291.308594 60.0 
1291.380127 120.0 
1292.066772 96.0 
1292.238525 96.0 
1292.935059 148.0 
1293.261841 36.0 
1293.719971 84.0 
1294.392944 48.0 
1295.259521 48.0 
1295.40271 64.0 
1296.011719 64.0 
1296.878784 100.0 
1298.843384 100.0 
1299.101685 36.0 
1299.284668 96.0 
1299.912354 84.0 
1300.3573 116.0 
1301.812012 112.0 
1302.496948 44.0 
1302.943848 112.0 
1303.050049 100.0 
1303.387695 68.0 
1303.603271 104.0 
1303.862061 40.0 
1304.552002 80.0 
1304.681396 92.0 
1306.069214 80.0 
1307.896851 60.0 
1308.55188 60.0 
1309.596069 92.0 
1309.790527 116.0 
1310.39563 72.0 
1310.734253 96.0 
1311.800903 80.0 
1311.865723 148.0 
1312.319946 60.0 
1312.464111 72.0 
1313.091553 56.0 
1314.500854 124.0 
1315.162231 36.0 
1315.364258 44.0 
1316.317261 72.0 
1317.068359 96.0 
1317.588501 92.0 
1318.347168 72.0 
1318.6073 88.0 
1319.091553 36.0 
1320.429199 64.0 
1321.680664 112.0 
1322.860229 56.0 
1322.925415 160.0 
1324.214233 60.0 
1324.286743 88.0 
1325.177734 100.0 
1325.5979 28.0 
1326.351685 112.0 
1326.482178 48.0 
1326.569092 60.0 
1326.757568 40.0 
1327.352173 52.0 
1327.874268 60.0 
1328.425537 60.0 
1329.296143 88.0 
1329.934692 76.0 
1330.087158 68.0 
1330.268677 128.0 
1330.965576 80.0 
1331.437622 44.0 
1331.691772 40.0 
1332.018677 32.0 
1332.251099 88.0 
1332.432739 48.0 
1332.585327 92.0 
1332.854126 48.0 
1332.977661 40.0 
1334.234985 76.0 
1336.176758 72.0 
1336.773438 52.0 
1337.122681 48.0 
1337.94519 48.0 
1338.098145 48.0 
1338.578613 84.0 
1338.731567 140.0 
1339.175781 76.0 
1339.833008 92.0 
1340.151978 76.0 
1340.421509 72.0 
1340.494385 80.0 
1344.745972 136.0 
1344.833618 64.0 
1347.871582 136.0 
1348.105347 56.0 
1350.305908 228.0 
1351.359253 124.0 
1351.432373 76.0 
1351.65918 48.0 
1352.537354 64.0 
1353.320679 60.0 
1354.302002 80.0 
1354.375244 68.0 
1354.521729 112.0 
1354.734131 64.0 
1354.7854 48.0 
1355.6427 48.0 
1357.643921 144.0 
1359.044922 36.0 
1360.637573 176.0 
1361.173584 104.0 
1361.827148 60.0 
1362.076904 116.0 
1362.664551 88.0 
1362.995239 76.0 
1363.436035 104.0 
1363.987305 120.0 
1364.075562 72.0 
1365.229858 64.0 
1365.28125 152.0 
1365.663696 68.0 
1366.399292 80.0 
1366.995361 112.0 
1367.370605 156.0 
1367.495728 196.0 
1368.150879 68.0 
1368.592529 152.0 
1368.953369 56.0 
1369.137451 132.0 
1369.241821 184.0 
1369.446777 68.0 
1370.618164 140.0 
1370.934937 108.0 
1372.416626 80.0 
1372.645142 76.0 
1372.792603 72.0 
1373.397339 76.0 
1373.78833 84.0 
1374.400635 72.0 
1375.699585 56.0 
1375.965332 104.0 
1376.135132 108.0 
1376.459961 100.0 
1376.533813 64.0 
1377.265015 60.0 
1377.575195 132.0 
1377.671265 100.0 
1377.94458 52.0 
1379.141724 128.0 
1379.78479 72.0 
1380.028809 52.0 
1382.321777 44.0 
1382.884155 52.0 
1384.127808 72.0 
1384.194458 160.0 
1384.394409 216.0 
1385.438721 96.0 
1386.142578 80.0 
1386.395752 96.0 
1386.661377 36.0 
1387.024536 40.0 
1387.410034 52.0 
1388.789185 72.0 
1389.560669 128.0 
1389.827759 104.0 
1391.111694 180.0 
1392.723022 132.0 
1392.81958 88.0 
1394.610229 76.0 
1394.825806 92.0 
1395.071045 80.0 
1395.160278 116.0 
1395.256958 124.0 
1395.710449 100.0 
1397.019409 48.0 
1397.101196 84.0 
1398.872314 52.0 
1399.036011 144.0 
1400.159668 80.0 
1400.81189 144.0 
1401.52356 96.0 
1402.067505 64.0 
1403.297363 112.0 
1403.588257 112.0 
1404.945557 52.0 
1405.206665 48.0 
1405.527588 136.0 
1406.206665 60.0 
1406.67688 40.0 
1407.177002 72.0 
1407.289062 44.0 
1407.438354 76.0 
1407.5354 116.0 
1409.537231 92.0 
1409.768921 84.0 
1411.30127 92.0 
1411.398438 100.0 
1411.607788 60.0 
1412.580078 56.0 
1414.51062 112.0 
1414.7052 96.0 
1415.341553 68.0 
1420.032715 28.0 
1420.520264 124.0 
1421.442993 52.0 
1421.495605 108.0 
1421.908325 56.0 
1423.139404 80.0 
1423.529785 44.0 
1423.610962 84.0 
1424.911865 104.0 
1425.557983 56.0 
1425.813477 104.0 
1426.956055 56.0 
1427.21167 116.0 
1428.023804 52.0 
1428.279541 104.0 
1429.927246 64.0 
1430.062744 116.0 
1430.33374 92.0 
1430.890747 80.0 
1431.523315 96.0 
1431.575928 60.0 
1431.832031 124.0 
1432.359253 124.0 
1433.436523 92.0 
1433.745483 120.0 
1433.858521 80.0 
1435.177734 104.0 
1435.622681 80.0 
1435.931152 84.0 
1436.354248 52.0 
1438.557617 68.0 
1439.04834 72.0 
1440.143188 40.0 
1440.437866 80.0 
1440.94397 68.0 
1441.291504 48.0 
1441.480347 68.0 
1442.024536 40.0 
1443.249146 84.0 
1443.929688 88.0 
1445.20813 92.0 
1445.699951 92.0 
1447.713623 52.0 
1448.864868 136.0 
1449.145142 80.0 
1450.054443 76.0 
1450.64563 48.0 
1450.964111 56.0 
1451.927002 56.0 
1452.61731 88.0 
1452.806885 92.0 
1453.057251 72.0 
1453.92981 56.0 
1454.165161 84.0 
1454.491455 120.0 
1454.946899 52.0 
1455.015259 96.0 
1456.913818 52.0 
1457.612793 56.0 
1458.395508 116.0 
1462.167847 52.0 
1463.187866 80.0 
1463.469482 120.0 
1463.637085 88.0 
1463.819824 56.0 
1464.170044 60.0 
1464.854126 108.0 
1464.96228 96.0 
1465.137451 128.0 
1469.002319 196.0 
1469.544067 40.0 
1469.925537 132.0 
1470.162109 68.0 
1471.200073 56.0 
1472.421753 80.0 
1473.911377 60.0 
1476.487427 80.0 
1481.876221 44.0 
1482.481567 80.0 
1482.688477 56.0 
1483.156006 68.0 
1483.477905 96.0 
1484.865723 56.0 
1488.894897 52.0 
1490.976807 40.0 
1493.352417 144.0 
1493.565552 56.0 
1495.183472 60.0 
1497.793457 104.0 
1498.270996 56.0 
1498.586914 84.0 
1499.896973 40.0 
1500.012573 20.0 
1502.133179 36.0 
END IONS

