BEGIN IONS
PEPMASS=466.252
CHARGE=1+
COMPOUNDNAME=TOBRAMYCIN
LIBRARYQUALITY=3
SMILES=N/A
INCHIKEY=NLVFBUXFDBBNBW-PBSUHMDJSA-N
INCHI=InChI=1S/C18H37N5O9/c19-3-9-8(25)2-7(22)17(29-9)31-15-5(20)1-6(21)16(14(15)28)32-18-13(27)11(23)12(26)10(4-24)30-18/h5-18,24-28H,1-4,19-23H2/t5-,6+,7+,8-,9+,10+,11-,12+,13+,14-,15+,16-,17+,18+/m0/s1
MSLEVEL=2
SOURCE_INSTRUMENT=N/A-ESI-QFT
FILENAME=library_mgf.mgf
SEQ=*..*
IONMODE=negative
ORGANISM=MONA
NAME=TOBRAMYCIN [M-H]-
PI=MoNA
DATACOLLECTOR=MoNA:VF-NPL-QEHF011813
PUBMED=N/A
SUBMITUSER=mwang87
TAGS=
SPECTRUMID=CCMSLIB00004702876
SCANS=11813
50.581657 0.0286 
50.739971 0.028264 
51.987888 0.027675 
52.395603 0.028164 
52.72089 0.031298 
53.582851 0.031077 
54.274242 0.028402 
55.506771 0.026981 
55.633392 0.027859 
56.371983 0.032203 
57.033146 0.17792 
57.143452 0.028576 
57.262691 0.028368 
57.782249 0.034424 
58.518883 0.028037 
59.012428 9.897318 
59.020931 0.025567 
59.189068 0.02952 
59.213753 0.025023 
59.830074 0.027 
60.442715 0.025399 
61.986958 12.332095 
62.05809 0.025038 
63.101467 0.025816 
63.223763 0.027596 
63.952518 0.026819 
63.961044 10.918422 
63.962769 0.192967 
64.057304 0.023937 
64.990601 0.02606 
64.992844 0.025871 
65.381691 0.029857 
65.628059 0.030965 
66.719482 0.027274 
66.917046 0.02632 
69.033203 0.607794 
70.416306 0.027224 
70.529854 0.027979 
71.012428 0.760026 
71.048912 0.125485 
71.536644 0.025803 
71.604836 0.029318 
72.99173 1.517496 
73.028091 0.526472 
73.423744 0.049268 
73.425583 0.077964 
73.816193 0.028593 
74.023361 0.074837 
74.205109 0.026797 
75.007416 1.244225 
76.463867 0.030408 
77.26226 0.029386 
77.540482 0.036504 
77.545013 0.03233 
78.957657 0.564535 
78.984535 18.214737 
78.996101 0.029284 
79.360497 0.029196 
79.955971 3.875886 
80.963821 1.970709 
80.980217 0.113529 
81.033234 0.965655 
82.124298 0.035694 
83.048851 3.633646 
85.028046 1.360429 
85.517662 0.027876 
87.007416 0.25665 
87.043724 0.042864 
88.487556 0.02659 
88.582687 0.031 
89.023048 3.934492 
89.041489 0.118001 
89.935104 0.028327 
90.932014 0.027275 
91.03862 0.029301 
92.92672 0.301494 
93.033234 0.033255 
94.923645 0.111898 
94.979523 4.147553 
95.95079 0.028724 
96.103409 0.028982 
96.407074 0.027236 
96.941093 0.368693 
96.95874 100.0 
96.975761 0.255982 
97.064529 0.116223 
97.958115 0.697437 
98.954575 3.468236 
98.962975 0.513907 
99.007462 0.617455 
99.080109 0.027693 
99.924484 0.359501 
100.159599 0.025299 
101.023056 0.143683 
101.059662 0.040228 
103.038834 0.068552 
103.449684 0.028923 
103.918968 0.680567 
104.033981 0.413069 
107.048523 0.030172 
109.11924 0.033808 
110.974854 0.043354 
111.080437 0.103337 
115.03904 0.049853 
115.908005 0.03026 
115.919472 1.146984 
116.004021 0.025351 
116.919701 0.030975 
116.927299 0.823682 
116.971344 0.080507 
117.018127 0.079204 
118.328979 0.027267 
118.940979 0.242243 
119.055107 0.030112 
119.94577 0.176415 
120.454689 0.024843 
121.028259 1.728626 
121.146049 0.028576 
121.475937 0.028497 
121.586739 0.030093 
121.942581 0.036001 
122.031616 0.036804 
123.043976 0.04057 
124.015968 0.028677 
125.023369 0.088457 
125.096062 0.727274 
125.890503 0.029376 
128.03418 0.107594 
129.054535 0.213471 
129.950409 0.030881 
130.809036 0.030518 
130.942917 0.109213 
132.995224 0.081131 
135.044006 0.078207 
139.000183 0.139341 
141.015701 0.091221 
145.964249 0.029992 
147.979767 0.029574 
149.008453 0.083571 
150.059708 0.26003 
150.987762 0.263312 
151.056076 2.1703 
151.075043 0.03696 
152.8936 0.08161 
153.127472 0.040423 
154.946335 0.393247 
157.759689 0.026587 
158.933334 0.036732 
160.841568 0.052019 
160.988052 0.050493 
162.837784 0.135161 
162.892532 0.037414 
162.950378 0.031397 
164.835251 0.036784 
164.967026 2.459683 
164.999893 0.027884 
165.911682 0.029894 
165.966476 0.036783 
166.909561 0.817627 
167.908081 0.621978 
169.905746 0.037475 
171.101852 0.417641 
172.95665 0.035414 
174.599594 0.031393 
174.849579 0.030143 
175.042114 3.123377 
176.899887 0.317685 
178.897186 0.0382 
181.159439 0.036091 
181.897354 0.104443 
182.03331 0.030189 
182.977982 0.482212 
183.011551 0.635768 
183.065338 0.030841 
183.876297 0.027911 
184.000427 0.047435 
184.87619 0.114624 
184.920135 0.100981 
185.874741 0.030739 
189.196045 0.031206 
197.027344 0.094309 
199.16954 0.036589 
199.974716 0.033932 
200.944611 0.840517 
201.640884 0.032681 
202.886215 0.039419 
205.893265 0.343829 
207.011749 0.040868 
207.069748 0.029831 
207.912659 0.034357 
208.095245 0.043497 
208.920761 0.043341 
208.976318 0.059265 
209.079071 0.105939 
213.675003 0.526367 
213.681549 0.871621 
219.975998 0.033382 
220.916962 0.196268 
220.935593 0.193839 
221.085052 0.115354 
223.027863 0.32961 
225.007462 0.63641 
226.9319 0.033459 
227.107956 0.070778 
227.201309 0.348217 
227.91951 0.037574 
229.098663 0.032755 
231.992599 0.034796 
234.919861 0.032393 
241.217117 0.603121 
243.196899 0.036753 
248.465302 0.029068 
250.948914 0.031368 
252.154343 0.030694 
253.090179 0.032662 
253.217606 0.0849 
255.232788 3.337612 
256.236023 0.296408 
258.251801 0.423527 
259.831909 0.028433 
260.873291 2.041183 
262.867889 0.044174 
264.158203 0.579927 
265.148193 0.176912 
268.944458 0.068537 
269.248322 0.218475 
270.922729 0.265789 
280.933533 0.044688 
281.248718 1.15483 
282.251526 0.1243 
282.995178 0.234544 
283.264191 5.156186 
283.281097 0.045794 
284.267426 1.097731 
284.824249 0.033675 
284.974121 0.451843 
286.97113 0.033514 
295.078827 0.035273 
297.153412 0.125471 
300.646881 0.031296 
301.217529 0.663737 
302.222107 0.036789 
303.233673 0.19237 
306.943634 0.060545 
311.169037 0.687585 
323.168976 1.13111 
324.173004 0.120669 
324.967346 0.199774 
325.184296 7.512886 
326.1875 0.93482 
331.444153 0.030021 
337.184387 3.352193 
337.348206 0.551034 
337.406494 0.036154 
338.188232 0.512179 
338.351044 0.033289 
339.199982 0.7356 
340.204742 0.033229 
342.963501 0.047453 
344.940826 0.091043 
348.89975 0.117293 
351.199982 1.582672 
352.203247 0.338842 
353.21817 0.036479 
359.156982 0.029227 
365.215759 0.280572 
367.356323 0.032737 
368.361572 0.033963 
382.376953 0.207989 
383.352692 0.090722 
384.998108 0.033828 
385.318268 0.032808 
386.912598 0.048143 
405.410187 0.080396 
419.430725 0.032951 
421.441742 0.040927 
426.099091 0.038616 
432.901947 0.089524 
439.644836 0.031381 
441.524994 0.031559 
447.92688 0.040653 
465.304291 6.233374 
465.341217 13.418964 
465.432251 0.223422 
465.467987 1.17186 
466.307556 1.817399 
466.344727 4.318718 
466.434113 0.038515 
466.470856 0.347402 
467.308594 0.04774 
467.34552 0.671064 
467.447479 0.238658 
END IONS

