BEGIN IONS
PEPMASS=364.175
CHARGE=1+
COMPOUNDNAME=GIBBERELLIC ACID
LIBRARYQUALITY=3
SMILES=N/A
INCHIKEY=IXORZMNAPKEEDV-SNTJWBGVSA-N
INCHI=InChI=1S/C19H22O6/c1-9-7-17-8-18(9,24)5-3-10(17)19-6-4-11(20)16(2,15(23)25-19)13(19)12(17)14(21)22/h4,6,10-13,20,24H,1,3,5,7-8H2,2H3,(H,21,22)/t10-,11+,12-,13-,16+,17+,18+,19-/m1/s1
MSLEVEL=2
SOURCE_INSTRUMENT=N/A-ESI-QFT
FILENAME=library_mgf.mgf
SEQ=*..*
IONMODE=positive
ORGANISM=MONA
NAME=GIBBERELLIC ACID [M+NH4]+
PI=MoNA
DATACOLLECTOR=MoNA:VF-NPL-QEHF006373
PUBMED=N/A
SUBMITUSER=mwang87
TAGS=
SPECTRUMID=CCMSLIB00004697436
SCANS=6373
50.042713 0.009684 
50.71114 0.025309 
50.923157 0.056069 
50.971775 0.025496 
51.135738 0.056719 
51.253117 0.012232 
51.486313 0.07366 
51.491005 0.015956 
51.517036 0.067981 
51.596455 0.067098 
52.031376 0.040533 
52.373199 0.016731 
52.785995 0.015282 
53.003067 0.04184 
53.039429 0.067817 
53.124752 0.013124 
53.233883 0.033037 
53.304512 0.044042 
53.459835 0.020948 
53.946301 0.047135 
54.376209 0.011943 
55.018623 2.238802 
55.054981 9.203314 
55.192177 0.011983 
55.283436 0.011429 
55.814281 0.012455 
55.877651 0.011896 
55.961678 0.017441 
56.050251 1.912779 
56.190239 0.050363 
56.390236 0.012425 
56.517071 0.01086 
56.601326 0.012181 
56.609867 0.011772 
56.831169 0.012435 
56.965668 0.623814 
57.034271 4.06828 
57.070625 12.637533 
57.229675 0.072667 
57.251637 0.029758 
57.51239 0.015474 
57.658577 0.045244 
57.833748 0.022319 
58.065868 36.500084 
58.151512 0.01203 
59.0499 3.923171 
59.051392 0.038377 
59.061165 0.760449 
59.069237 0.273337 
59.271561 0.023209 
59.336239 0.073032 
59.723598 0.013024 
60.04369 0.058453 
60.04512 4.866631 
60.081562 0.164024 
60.114864 0.043184 
60.117462 0.065964 
60.55196 0.013558 
60.599018 0.014103 
60.825111 0.059178 
60.828625 0.016931 
61.008621 0.015657 
61.011391 0.346851 
61.04401 0.014179 
61.864948 0.015802 
61.870609 0.04372 
61.970036 0.011872 
62.019192 0.234885 
62.060825 0.402333 
62.160149 0.011285 
62.798687 0.013399 
62.82325 0.062141 
62.974827 0.036343 
62.982437 1.004704 
63.236439 0.05173 
63.801094 0.025289 
63.879601 0.035642 
63.998421 0.013297 
64.297394 0.026072 
64.530533 0.043522 
64.978065 0.293188 
65.142792 0.017565 
65.153915 0.016715 
65.361244 0.058501 
66.058197 0.029067 
66.103828 0.012928 
66.477554 0.031306 
66.889809 0.068071 
66.950455 0.046648 
67.054924 10.934993 
67.113655 0.016242 
67.673203 0.031695 
68.041817 0.054727 
68.132675 0.052217 
68.352806 0.014778 
68.554321 0.012717 
68.849258 0.014684 
68.89872 0.01129 
68.926971 0.051283 
69.034187 2.797548 
69.061974 0.023197 
69.070526 15.394396 
69.684013 0.014996 
69.991547 0.066588 
70.029457 0.0575 
70.065781 16.058088 
70.073769 0.155873 
70.746445 0.056093 
71.049774 5.699583 
71.069176 0.069082 
71.086174 7.179455 
71.741562 0.046917 
71.827614 0.013921 
71.849586 0.050108 
71.858749 0.012414 
71.982239 0.062215 
72.045036 0.812128 
72.081421 5.417018 
72.251534 0.011897 
72.772949 0.012437 
72.86908 0.061863 
73.029076 0.164348 
73.065445 2.831562 
73.307602 0.056787 
73.594223 0.07402 
73.665108 0.060835 
73.678368 0.069254 
73.922722 0.067879 
74.006325 0.053432 
74.024284 0.137695 
74.060669 3.42192 
74.097122 0.350492 
75.04467 0.392123 
75.298782 0.012128 
75.411804 0.01266 
75.543556 0.013484 
76.039902 1.387575 
76.076309 1.148785 
76.084839 0.059019 
76.842247 0.059796 
76.928291 0.017769 
77.039604 0.042406 
78.332253 0.038212 
78.352051 0.011636 
78.856117 0.012816 
79.021812 6.836817 
79.054779 6.737612 
79.381584 0.056142 
79.549271 0.015867 
79.723305 0.055873 
79.98201 0.051076 
80.049995 0.077743 
80.057777 0.013944 
80.608109 0.021263 
80.631004 0.029407 
80.734459 0.085644 
80.948418 0.09604 
81.034065 2.301456 
81.070419 22.282246 
81.394005 0.035999 
81.655304 0.013143 
81.658813 0.022303 
82.065697 0.575575 
82.073868 0.505337 
82.332611 0.011682 
83.04969 8.921778 
83.08606 11.306666 
83.23243 0.065539 
83.570152 0.012142 
83.870499 0.012684 
83.917534 0.039288 
84.04493 5.284172 
84.081314 6.166035 
84.089409 0.115688 
84.810219 0.013804 
84.846741 0.01189 
85.028938 2.454341 
85.040161 0.028196 
85.065292 9.284156 
85.101707 3.481755 
85.134056 0.034227 
85.167374 0.012001 
86.060532 4.531561 
86.096909 11.042985 
86.193718 0.011608 
86.226593 0.014225 
86.450729 0.023292 
86.495476 0.013913 
86.885567 0.059381 
87.044563 4.923871 
87.100304 0.336836 
87.750534 0.021256 
88.039795 15.396897 
88.07621 0.606625 
88.505844 0.021672 
88.571556 0.037942 
88.582092 0.013887 
89.060173 10.065048 
89.349792 0.01192 
89.747566 0.013883 
90.055389 0.275049 
90.655663 0.014461 
91.054665 5.251163 
92.058281 0.020192 
93.070297 12.813852 
93.437614 0.019491 
93.585098 0.0202 
94.065544 0.483573 
94.073639 0.130921 
94.580902 0.038314 
95.049553 7.064459 
95.060776 0.256488 
95.085945 24.099646 
95.133499 0.025998 
95.672302 0.065025 
95.932129 0.064467 
96.044884 0.631289 
96.081238 0.748479 
96.089287 0.932264 
96.53524 0.037322 
96.793968 0.021384 
96.980995 0.036443 
97.028839 0.877835 
97.065239 8.939261 
97.10157 7.581044 
97.152412 0.049831 
97.315979 0.01215 
97.968872 0.043188 
98.060379 1.787939 
98.068298 0.084778 
98.096817 14.457323 
98.104988 0.117788 
98.525658 0.012984 
98.566628 0.011346 
98.947502 0.012947 
98.972534 0.017988 
98.975723 1.406363 
99.041183 0.017673 
99.044426 3.986336 
99.068115 0.454715 
99.077156 0.01154 
99.080803 5.426401 
99.148643 0.018722 
99.397072 0.052915 
99.637611 0.06029 
99.794464 0.014164 
100.021957 0.205388 
100.034447 0.013784 
100.072044 0.012401 
100.076088 7.353719 
100.112877 0.065204 
100.189362 0.011636 
100.991676 0.013886 
101.003586 0.496382 
101.023521 0.100645 
101.060074 7.891469 
101.071373 0.053708 
101.38179 0.061933 
102.055313 4.537693 
102.09185 0.186175 
102.143585 0.063603 
102.264404 0.037709 
103.015381 0.01307 
103.039116 0.268221 
103.054268 0.095129 
103.107544 0.052444 
104.047028 0.012653 
104.070908 4.888482 
104.992447 0.029323 
105.033707 0.358546 
105.070213 7.321715 
105.569542 0.049956 
106.0504 0.021028 
106.073738 0.134776 
107.049477 3.922044 
107.070358 0.014811 
107.085838 13.096469 
107.499535 0.034104 
107.967216 0.043401 
108.081062 2.480178 
108.089096 0.3899 
109.028809 0.333451 
109.065056 7.911358 
109.101418 15.319398 
109.502403 0.012323 
110.06028 2.512901 
110.071663 0.818273 
110.096703 2.110638 
110.104736 0.535721 
110.282402 0.045042 
110.4263 0.064888 
111.044296 20.22049 
111.055679 0.050979 
111.080673 6.606906 
111.117142 1.740161 
111.844078 0.046882 
112.03965 0.609278 
112.047546 0.556582 
112.075943 2.988601 
112.112289 0.559316 
112.247292 0.078305 
113.023758 0.069122 
113.059906 5.259753 
113.072075 0.013021 
113.096283 8.956336 
114.055191 1.287933 
114.091629 0.286742 
115.039223 3.029057 
115.075569 5.854555 
115.08683 0.030088 
115.991119 0.03406 
116.042717 0.027965 
116.053192 0.081062 
116.070824 3.657991 
116.107231 1.372284 
116.413406 0.03593 
116.986107 2.832833 
117.054916 0.212404 
117.070076 1.921796 
118.032494 0.424124 
118.086502 0.920878 
118.445358 0.049266 
118.724632 0.076323 
118.971855 0.179557 
119.002068 0.096656 
119.049309 3.669686 
119.08567 11.675251 
120.044662 0.053766 
120.065529 0.191874 
120.080933 9.840699 
120.08889 0.43435 
120.14109 0.012108 
120.954056 0.013805 
120.979118 0.018124 
121.028587 0.611476 
121.039124 0.04982 
121.064926 5.298007 
121.084099 0.065198 
121.101311 12.984502 
121.178673 0.015004 
121.230232 0.013627 
122.060188 1.944372 
122.096619 0.517357 
122.104797 0.475837 
123.044235 1.128558 
123.080589 6.725599 
123.091736 0.044282 
123.116898 7.144212 
124.039543 0.256034 
124.075829 2.996577 
124.084206 0.058163 
124.112183 0.513406 
124.12043 0.057753 
124.472816 0.055114 
124.822395 0.055834 
125.023323 0.285807 
125.059799 5.386231 
125.070831 0.028443 
125.096153 5.175195 
125.107651 0.165886 
125.529625 0.015153 
126.054169 3.259252 
126.091393 5.629759 
126.862839 0.013684 
127.03904 0.535962 
127.057846 0.07186 
127.0755 2.200996 
127.111694 0.386164 
127.897369 0.018469 
128.070679 2.556713 
128.107071 1.484333 
128.14357 0.108182 
129.054642 4.384152 
129.069931 0.611933 
129.091019 0.418326 
129.102371 0.171876 
130.049896 4.087801 
130.065094 0.458942 
130.086319 1.648996 
130.174667 0.013356 
130.632217 0.013922 
130.64563 0.013829 
131.070145 0.027168 
131.085495 5.747945 
131.704788 0.069916 
132.043762 0.015696 
132.06546 0.267405 
132.080734 0.427294 
132.101852 1.237902 
132.590057 0.018001 
133.064819 1.530495 
133.085999 0.979761 
133.101166 7.413785 
133.778366 0.014355 
134.060165 0.220703 
134.096436 0.479373 
134.10466 0.077206 
134.978668 3.624519 
134.996399 5.616102 
135.044067 0.799394 
135.080399 6.264369 
135.116776 9.547646 
135.823334 0.013133 
135.999527 0.013919 
136.038773 0.241932 
136.061844 0.443169 
136.075607 8.767779 
136.081604 0.045102 
136.08371 0.03895 
136.11203 0.783312 
136.120132 0.40961 
136.957855 0.014885 
136.974854 0.033387 
137.011703 2.020916 
137.045929 0.19792 
137.059662 4.868677 
137.070923 0.847783 
137.096069 5.260121 
137.132431 1.912477 
138.052689 6.863384 
138.091232 3.476793 
138.12764 0.213388 
138.159058 0.06925 
138.989319 0.173739 
139.00827 0.081165 
139.038544 0.631333 
139.049942 0.230919 
139.056061 0.068857 
139.075333 5.154062 
139.086197 0.211785 
139.111664 2.249079 
140.016464 0.077076 
140.069702 1.322863 
140.106796 0.638171 
140.843201 0.01801 
141.054626 1.140221 
141.065643 0.121677 
141.091019 1.46813 
141.10231 0.072294 
142.049881 0.336734 
142.086243 1.326956 
142.122559 0.049174 
142.186493 0.035453 
142.985809 0.015491 
143.070267 3.218584 
143.085526 3.124662 
143.106949 0.014124 
143.118134 0.065441 
144.06546 3.659154 
144.080643 0.335925 
144.101822 0.696082 
145.06459 0.21887 
145.10112 9.201286 
146.059982 8.611507 
146.096375 2.583121 
146.650452 0.026283 
146.872955 0.070564 
146.974304 0.037396 
146.996414 0.086325 
147.043961 0.28103 
147.063873 0.519385 
147.080444 6.164556 
147.116745 5.749958 
148.024765 0.025051 
148.039185 1.316941 
148.075592 1.479021 
148.105453 0.117256 
148.111938 24.739538 
148.118347 0.470889 
148.887161 0.012401 
149.012161 0.364091 
149.02327 3.058203 
149.042297 0.069976 
149.059677 2.954444 
149.096069 5.740878 
149.132431 4.599156 
150.026825 0.020954 
150.054886 1.707205 
150.091339 2.659233 
151.027512 0.074572 
151.037643 0.068758 
151.05864 0.016478 
151.075317 7.994311 
151.086472 0.154871 
151.096115 0.013208 
151.111649 3.618027 
151.122681 0.091869 
151.148071 0.446222 
152.03183 0.411061 
152.056625 0.937283 
152.070541 4.029698 
152.077362 0.117966 
152.106857 3.775264 
152.518326 0.042904 
152.989166 9.846852 
153.006943 1.285947 
153.054306 1.353542 
153.065552 0.220032 
153.07373 0.022917 
153.090881 3.784957 
153.102036 0.468027 
153.127258 2.239982 
153.992844 0.031899 
154.047623 3.273219 
154.086151 9.108828 
154.122574 2.010522 
154.589081 0.035394 
154.927277 0.015475 
154.933838 0.047905 
154.968445 0.045875 
154.985016 0.512726 
155.022263 1.436081 
155.031235 0.026913 
155.070206 1.704732 
155.085663 1.665238 
155.106705 0.409999 
155.117584 0.058306 
156.065353 0.527625 
156.076569 0.168581 
156.101868 1.013559 
156.138382 0.200229 
156.944183 0.01195 
156.978333 0.040048 
157.018982 0.013714 
157.076157 0.420252 
157.085739 0.190423 
157.101212 3.592546 
157.218735 0.066464 
158.060028 0.847468 
158.081024 0.034689 
158.117554 2.139826 
159.080383 1.895478 
159.11673 5.697181 
160.027969 0.037834 
160.075699 0.71812 
160.112122 0.15755 
160.990036 0.032184 
161.011993 0.14679 
161.059402 0.598693 
161.080292 0.26718 
161.0961 3.695445 
161.1073 0.072967 
161.132431 3.825845 
162.021973 0.08 
162.054688 0.590172 
162.091293 2.394709 
162.135788 0.071449 
163.026413 0.033927 
163.0392 0.041825 
163.075211 3.696163 
163.086502 0.420773 
163.11171 3.016279 
163.148087 1.642685 
163.176743 0.072666 
164.070282 2.426372 
164.079056 0.023686 
164.107101 2.00045 
164.725433 0.012504 
165.007004 0.438575 
165.054398 3.41919 
165.090927 5.138753 
165.102097 0.108715 
165.127411 1.148665 
165.163895 0.138956 
166.086166 5.458512 
166.093979 0.0294 
166.12265 0.637099 
166.74614 0.012138 
166.932358 0.01288 
167.004898 0.246526 
167.070175 6.403641 
167.081879 0.018078 
167.106552 1.680118 
167.117813 2.162579 
167.143112 0.247611 
167.508347 0.071721 
168.065231 1.231547 
168.101883 5.140493 
168.398636 0.013226 
168.978821 0.066393 
169.039307 0.050185 
169.047104 4.608931 
169.085999 0.671332 
169.101318 2.110822 
169.10965 5.435864 
169.297684 0.046466 
170.0811 2.454328 
170.117599 1.586025 
170.474762 0.013142 
170.955338 0.118873 
170.999786 1.991733 
171.033081 0.021121 
171.063995 0.030204 
171.080276 0.256177 
171.116837 1.3681 
172.07576 0.099462 
172.096741 1.479574 
172.133087 2.84102 
172.943573 0.249203 
172.952438 0.025932 
173.01149 0.022742 
173.07106 0.752016 
173.079651 0.015045 
173.095978 2.691562 
173.117462 0.34555 
173.132401 0.832209 
174.054855 17.331301 
174.091324 0.730096 
175.028107 0.037327 
175.058319 0.925651 
175.075165 2.849957 
175.086563 0.689928 
175.111649 1.934673 
175.148178 1.819819 
176.058929 3.305929 
176.070557 1.510942 
176.106705 1.925385 
176.967255 0.093925 
176.989105 0.427178 
177.022324 0.080321 
177.043015 1.03392 
177.05426 0.710821 
177.065521 0.052666 
177.090836 3.036821 
177.102219 0.608774 
177.12735 1.473856 
177.163864 0.464024 
178.049011 0.029989 
178.086182 4.844024 
178.094788 0.100433 
178.122513 1.183679 
178.528061 0.013896 
178.986404 0.013505 
179.004776 0.663446 
179.022293 1.204345 
179.070068 2.683271 
179.085846 5.228576 
179.093323 0.164597 
179.1064 4.271679 
179.117279 0.226475 
179.142685 0.582189 
179.166718 0.014427 
180.06543 1.005139 
180.093201 2.975929 
180.101837 3.648968 
180.10994 0.110664 
180.138275 0.077208 
181.019196 0.05368 
181.048843 0.160101 
181.060913 0.151247 
181.085815 0.777336 
181.09964 0.715885 
181.122192 0.64293 
181.978958 0.041054 
182.08107 2.269778 
182.117569 0.641135 
182.993149 0.032593 
183.017593 0.265802 
183.101486 0.115094 
183.116821 0.937989 
183.76738 0.056058 
184.09668 0.385107 
184.132278 0.069074 
184.16008 0.012786 
185.042007 5.950004 
185.081299 0.065075 
185.09613 0.613429 
185.118088 0.091663 
185.132462 4.526443 
185.156891 0.015307 
186.054794 0.05912 
186.091187 1.058076 
187.027054 0.024911 
187.075134 0.507452 
187.086365 0.060082 
187.095993 0.038785 
187.11174 1.608447 
187.148026 3.290625 
188.070465 1.236834 
188.106964 1.429628 
188.96611 0.193477 
188.989243 0.036103 
189.043213 0.166477 
189.053345 0.055725 
189.090958 7.784576 
189.10054 0.668069 
189.11142 0.299861 
189.127487 0.73001 
189.163712 0.496929 
190.050461 0.056822 
190.08609 2.482753 
190.122528 1.246758 
190.953857 0.902984 
190.962814 0.07677 
191.000351 0.011494 
191.022629 0.070817 
191.055222 0.229307 
191.070099 1.184226 
191.080948 0.680208 
191.106583 2.598905 
191.117172 1.133029 
191.143066 0.343768 
192.064896 0.758547 
192.093307 0.587057 
192.101898 3.291143 
192.111053 0.085772 
192.138184 0.424588 
192.961243 0.028005 
193.001831 0.19344 
193.037628 0.034821 
193.047745 0.146182 
193.085403 3.171332 
193.10112 19.116146 
193.122437 1.223536 
193.133133 1.024872 
193.301285 0.013808 
194.069305 1.492657 
194.080811 1.678398 
194.104599 2.746616 
194.117554 3.196995 
194.152985 0.091344 
194.288162 0.015873 
194.977814 0.017942 
194.99971 2.604271 
195.03302 0.176811 
195.053513 0.643954 
195.063492 0.082083 
195.077484 0.247111 
195.100937 0.861986 
195.116653 5.092526 
195.138092 0.172059 
196.060471 0.274391 
196.096634 1.485191 
196.120239 0.054113 
196.133255 0.128856 
196.983887 0.047726 
196.996002 0.063445 
197.014954 1.049847 
197.032532 0.052577 
197.048813 0.288353 
197.080734 0.730768 
197.095947 1.856764 
197.116394 0.109147 
197.132187 2.812046 
198.007538 0.154359 
198.076126 0.192727 
198.08989 0.091088 
198.112442 0.380001 
198.886993 0.017964 
198.994003 0.054695 
199.011734 0.245414 
199.027985 0.121747 
199.063766 0.061247 
199.074966 0.373386 
199.111267 0.617989 
199.14798 0.559564 
200.071411 0.056303 
200.106812 0.201008 
200.127914 1.370345 
200.577179 0.015645 
201.043243 0.292146 
201.080276 0.332167 
201.090881 9.247045 
201.101089 1.056842 
201.127411 0.808374 
201.163666 0.521467 
202.05014 0.482616 
202.085602 0.461174 
202.094513 1.439158 
202.122559 1.102935 
202.586639 0.017633 
203.022736 0.017696 
203.052444 16.799643 
203.06958 0.809537 
203.081131 0.33201 
203.106873 1.511864 
203.117538 1.624888 
203.143143 1.142179 
203.179367 0.171996 
204.055054 0.153503 
204.065643 0.822497 
204.101807 7.03257 
204.111938 0.482009 
204.123337 1.891248 
204.138275 0.688554 
205.037842 1.101368 
205.069244 0.054323 
205.085907 0.930803 
205.096848 1.312322 
205.122421 1.51958 
205.133392 1.426743 
205.157745 0.066128 
205.194839 0.024048 
206.08075 2.576066 
206.091522 0.031166 
206.108551 1.201789 
206.117691 8.1736 
206.977753 0.441156 
206.999786 1.334069 
207.028152 0.112485 
207.05397 0.204949 
207.064865 0.146923 
207.076096 0.17708 
207.101151 0.943743 
207.112503 1.987777 
207.121902 0.078624 
207.137878 0.626663 
207.148972 0.361413 
208.060074 0.029097 
208.087097 0.023785 
208.096695 5.975645 
208.133072 1.104592 
208.875519 0.176073 
208.964508 0.476282 
209.079498 0.176434 
209.095703 1.973291 
209.116379 0.830918 
209.132248 5.150615 
209.517487 0.020207 
210.074478 3.477141 
210.11174 0.876114 
210.136154 0.583045 
210.14772 0.024269 
211.012482 0.023704 
211.063934 5.471677 
211.111435 2.490337 
211.147949 2.41088 
212.024704 0.026674 
212.068192 0.12017 
212.091476 0.142556 
212.12796 0.120994 
212.151169 0.064903 
212.16391 0.084136 
212.992599 0.413189 
213.009995 0.23084 
213.043167 1.326092 
213.05423 0.063981 
213.090973 0.618988 
213.112671 0.031244 
213.127182 4.374415 
213.163086 0.152903 
214.085281 0.062776 
214.122375 0.248128 
214.445374 0.482381 
214.45636 1.333741 
214.464554 2.131055 
214.485565 0.383749 
214.953873 2.380981 
214.987671 0.015555 
215.025116 0.422505 
215.047363 0.038725 
215.058899 9.590301 
215.081161 0.378179 
215.094559 0.036573 
215.106445 0.783725 
215.117676 0.116895 
215.142883 0.446462 
215.179016 0.059613 
215.341797 0.014397 
216.064789 1.176558 
216.102005 2.32442 
216.123016 0.227451 
216.137878 0.216694 
216.969559 2.244092 
216.986908 0.761582 
217.022232 0.08198 
217.038727 0.017355 
217.074173 0.369534 
217.085495 0.406047 
217.096664 0.814353 
217.122223 0.548123 
217.133377 1.157459 
217.157928 0.114233 
217.170319 0.046386 
217.194641 0.05257 
218.032867 0.081771 
218.080795 1.75078 
218.117249 4.752308 
218.128143 0.19168 
218.152908 0.019398 
218.965103 0.01345 
219.019836 0.983496 
219.053635 0.261615 
219.064407 0.058694 
219.076263 0.666314 
219.089478 0.047042 
219.100861 0.849703 
219.111832 1.763665 
219.137955 1.053388 
219.1492 6.456775 
219.174179 56.587463 
220.020569 0.027189 
220.095688 3.094813 
220.107071 0.042113 
220.119904 0.199696 
220.133072 1.788189 
220.153198 0.309996 
221.079926 1.59373 
221.09198 0.932594 
221.115036 0.31762 
221.132538 49.83466 
221.152374 0.996816 
222.075134 0.597726 
222.111053 7.395538 
222.12352 0.165814 
222.135925 9.020331 
222.147934 0.218738 
222.898804 0.015901 
223.027817 0.070731 
223.064255 0.358534 
223.095062 0.043677 
223.110199 0.989948 
223.132767 0.124415 
223.14386 8.470079 
223.168655 0.017702 
224.091644 0.078103 
224.11618 0.076762 
224.128128 0.968846 
224.148132 0.196792 
224.936783 0.027361 
224.953018 0.012979 
225.010208 11.477689 
225.043045 0.108899 
225.079239 0.125377 
225.08963 0.176107 
225.097778 0.126844 
225.11348 0.078831 
225.126892 1.257957 
225.163269 0.350664 
226.002121 0.018965 
226.01358 0.46639 
226.107468 0.06508 
226.143997 0.055063 
226.886124 0.954787 
226.954117 0.016188 
227.005554 0.207202 
227.058807 1.597345 
227.094559 0.488156 
227.106216 0.607968 
227.128403 0.061502 
227.142502 0.869824 
227.179611 0.291716 
228.062897 0.040093 
228.10173 0.193586 
229.074524 100.0 
229.096695 0.186364 
229.122009 0.807836 
229.133942 0.057322 
229.158524 0.062871 
229.195068 0.057056 
230.078461 6.431948 
230.117264 1.150653 
230.964066 0.057805 
231.00235 0.109308 
231.053848 9.631167 
231.077667 0.030664 
231.089905 0.021079 
231.111023 1.502418 
231.13765 4.616629 
231.148773 0.082299 
231.174347 0.054342 
231.751785 0.014888 
231.981049 0.012844 
232.058945 0.371017 
232.083649 0.169071 
232.096222 2.417549 
232.108093 0.198219 
232.120316 0.091076 
232.132782 1.244028 
232.964462 18.3253 
233.034424 0.064496 
233.069412 7.232728 
233.091705 2.042545 
233.115997 1.076624 
233.128021 1.64617 
233.225677 0.062816 
233.615402 0.016723 
233.967789 0.548975 
234.074905 1.169605 
234.088089 0.028209 
234.100449 0.819308 
234.112228 1.771249 
234.123276 0.268611 
234.148224 0.485162 
234.921509 0.69937 
234.960022 0.148269 
234.980179 1.305945 
234.997375 1.560196 
235.009216 0.013017 
235.095032 0.187744 
235.1073 1.566843 
235.131561 0.618407 
235.144424 1.381657 
235.167358 0.129041 
235.998322 0.088968 
236.079254 0.019287 
236.090668 0.54127 
236.127686 1.807371 
236.164017 0.645202 
236.993759 0.130159 
237.024155 0.017827 
237.090103 0.769256 
237.109222 0.041602 
237.126831 6.113773 
237.145187 0.045976 
237.163147 0.121229 
237.645126 0.017069 
238.074249 0.025696 
238.107315 1.51507 
238.1306 0.450213 
238.95401 0.030892 
238.967285 0.079805 
239.025055 0.255319 
239.05835 0.111767 
239.095551 0.031783 
239.105942 0.940522 
239.142883 44.510586 
239.179642 0.02226 
240.089386 0.019355 
240.101547 0.097075 
240.146561 7.583486 
240.232178 1.94801 
240.908646 0.164563 
240.947189 0.017385 
240.986145 0.136684 
241.038025 0.238726 
241.052856 0.021119 
241.074448 11.064984 
241.085999 0.588089 
241.097458 0.276634 
241.110153 0.386864 
241.121887 2.233476 
241.15744 0.153318 
242.078476 0.753622 
242.11673 0.468927 
242.983795 0.619203 
243.020462 3.65146 
243.053665 1.131047 
243.089539 5.227347 
243.100815 0.957659 
243.110275 0.354681 
243.137512 0.197586 
243.173828 0.336591 
244.012146 0.316407 
244.048645 0.210433 
244.083511 0.051222 
244.096313 0.767267 
244.132507 0.334987 
244.8965 6.763097 
244.930603 0.025906 
244.963928 0.902861 
244.983475 0.161219 
245.017441 0.032091 
245.033081 0.163257 
245.054001 0.047603 
245.069153 3.069606 
245.091385 0.373051 
245.105103 0.679425 
245.116531 0.164986 
245.127808 0.359328 
245.153076 2.31605 
245.190262 0.247063 
245.933563 0.016801 
245.948532 0.013685 
246.061722 0.10617 
246.075058 0.129009 
246.11171 1.357609 
246.147964 0.648513 
246.940277 0.016126 
246.979736 0.643381 
247.085098 73.909996 
247.108383 2.467137 
247.131409 0.565578 
247.144241 0.529808 
247.946793 0.054618 
247.98262 0.87363 
248.043457 1.214087 
248.089188 5.772628 
248.102875 0.322692 
248.127701 3.879164 
248.163834 0.627203 
248.937149 0.050043 
248.97464 0.054462 
249.013046 0.248342 
249.064362 5.374529 
249.087326 1.351372 
249.110519 0.140864 
249.123093 3.104636 
249.146698 0.426372 
249.159668 0.87228 
249.184357 0.292131 
249.961746 0.341237 
250.06868 0.169334 
250.105972 4.306798 
250.143112 1.551647 
250.893677 0.019219 
250.930939 0.043064 
250.974731 12.935253 
251.025253 0.198543 
251.046814 1.426519 
251.063629 0.092121 
251.079819 0.173341 
251.101898 2.675918 
251.124969 0.142915 
251.138474 2.008493 
251.978424 0.255745 
252.084503 2.521554 
252.098541 0.077078 
252.122177 0.644651 
252.203506 0.093795 
252.930237 0.108346 
252.97052 0.34278 
253.004395 0.037812 
253.119217 0.68102 
253.158112 0.921998 
254.1138 0.230991 
254.150757 0.060685 
254.194382 0.014869 
255.001312 0.014731 
255.036179 0.170394 
255.089783 1.446111 
255.101746 0.819545 
255.137543 8.828959 
255.173843 0.957609 
256.094269 0.075709 
256.14151 0.274196 
256.962646 0.471981 
257.032318 0.264101 
257.068756 0.299159 
257.092438 0.461579 
257.106659 0.235672 
257.12326 6.806528 
257.15271 1.164983 
257.18985 0.412929 
258.098633 0.058367 
258.112061 1.113037 
258.125 1.357936 
258.147858 0.257369 
258.912445 0.14349 
258.94696 0.014277 
258.980072 1.025699 
258.995972 0.230571 
259.029022 0.027871 
259.04892 0.465748 
259.084961 6.32542 
259.107544 0.408492 
259.119598 1.475029 
259.131683 0.216712 
259.144745 0.40384 
260.063507 0.023373 
260.078339 0.040265 
260.089844 0.333978 
260.113037 0.023048 
260.127594 2.253258 
260.140869 0.035212 
260.163879 0.709656 
260.994171 0.428449 
261.01239 0.03129 
261.028564 0.176053 
261.05191 0.026872 
261.071289 0.088116 
261.085144 0.149767 
261.100372 4.35565 
261.123047 1.057707 
261.159851 0.195807 
261.18454 0.085639 
261.94516 0.03443 
262.008179 0.208036 
262.059662 0.524336 
262.0737 0.018863 
262.09433 2.910567 
262.106934 1.065781 
262.129364 0.021083 
262.14328 1.061255 
262.179871 4.314719 
262.214233 2.227682 
262.497559 0.078284 
262.907135 7.845802 
262.941376 0.020161 
262.975159 2.213477 
262.990997 0.174028 
263.041504 0.014035 
263.063416 0.185072 
263.080048 0.665128 
263.1026 0.128922 
263.139191 1.702428 
263.161926 0.316726 
263.199188 0.022673 
263.910797 0.018671 
263.944153 2.155837 
263.978668 0.034815 
264.084564 0.078937 
264.121826 0.399313 
264.158539 0.474784 
264.908936 0.024223 
264.990479 0.673407 
265.082794 0.049616 
265.102356 0.544966 
265.120544 12.385393 
265.13855 0.128014 
265.154999 2.223989 
265.939362 0.306555 
265.956482 0.125907 
266.053955 0.121649 
266.069122 0.414611 
266.100494 0.032856 
266.124817 1.04562 
266.150665 0.066801 
266.174011 0.226962 
267.053314 0.045604 
267.071686 0.030338 
267.094543 3.224166 
267.133087 16.963415 
267.172028 0.090194 
268.01059 0.01209 
268.096619 0.074026 
268.115082 19.66473 
268.129486 9.288075 
268.94104 0.474516 
268.985168 0.125727 
269.068756 0.248083 
269.080688 0.051137 
269.091736 0.094004 
269.104797 0.030758 
269.118134 1.013191 
269.152832 0.114263 
269.444153 0.014858 
270.112183 0.359397 
270.901215 0.070968 
270.937653 0.451634 
271.084686 0.054577 
271.119568 0.023083 
271.133179 0.132413 
271.142639 0.104212 
271.169006 2.559598 
272.091125 0.094339 
272.127411 0.272225 
272.174011 0.047016 
272.900055 0.015327 
272.936554 0.834881 
272.974579 0.668586 
273.029236 0.055033 
273.100037 1.894117 
273.123383 0.432488 
273.147003 0.545358 
273.159576 0.12721 
273.184326 0.481348 
273.889282 0.116656 
273.974152 0.01422 
274.106445 0.244722 
274.142426 0.191002 
274.17865 0.089879 
274.894043 0.261847 
274.909058 0.013364 
274.970184 7.260875 
274.987091 0.02967 
275.078644 0.023941 
275.101685 0.2015 
275.117371 0.043087 
275.136383 1.885648 
275.175934 0.179493 
275.349518 0.013633 
275.978149 0.069865 
276.072601 0.019814 
276.122284 0.808239 
276.138214 0.13183 
276.156891 0.084406 
276.909424 0.680612 
276.923889 0.148313 
276.99057 0.774847 
277.007385 0.330242 
277.095428 0.246066 
277.118042 0.740458 
277.154541 1.970602 
277.252808 0.059306 
277.959625 0.016994 
278.123169 0.27474 
278.137848 0.475689 
278.968689 0.128984 
279.005707 0.049469 
279.02298 0.319426 
279.066101 0.02535 
279.110199 0.228363 
279.133484 0.577537 
279.922607 0.014602 
279.955536 0.657002 
280.01886 0.165408 
280.153778 0.117908 
280.917389 0.77419 
280.98526 1.522863 
281.117432 0.063745 
281.153015 0.863359 
281.954712 0.444312 
282.149567 0.125749 
283.084351 0.137121 
283.096497 0.066678 
283.132507 21.579887 
283.168915 0.96721 
284.079895 0.666335 
284.1362 3.72239 
284.375885 0.015259 
284.926941 0.099184 
285.026733 0.017302 
285.063965 0.810206 
285.100616 21.922092 
285.118103 2.026821 
285.149719 0.756341 
285.270966 0.068858 
285.815338 0.127252 
285.976105 0.130157 
286.104797 3.760273 
286.120575 0.164346 
286.142578 0.242058 
286.185577 0.065169 
286.82135 0.014537 
286.89386 0.233158 
286.957275 0.046685 
286.974701 0.750502 
287.043304 0.023261 
287.062164 0.383508 
287.079315 8.194926 
287.116119 0.505091 
287.138153 1.109507 
287.830841 0.017989 
287.912903 0.017577 
287.941711 0.165127 
287.976929 0.021844 
287.993439 0.056049 
288.082672 0.071176 
288.107422 0.03756 
288.122437 1.015591 
288.143433 0.076915 
288.159058 1.181717 
288.195862 0.122686 
288.913147 0.48618 
288.949982 0.018049 
288.985901 0.134439 
289.078156 2.828669 
289.117554 0.719025 
289.13269 0.015845 
289.154633 0.924244 
289.178864 0.31809 
290.101624 0.23211 
290.137817 0.810296 
290.173157 0.063199 
290.909302 0.077359 
290.928162 0.043846 
290.947174 6.089584 
290.986023 0.537447 
291.040863 0.285805 
291.134064 0.825636 
291.155365 0.130177 
291.171631 0.250603 
291.192566 0.79986 
291.230988 0.085496 
291.50177 0.042125 
291.950104 0.317123 
291.984131 0.0437 
292.981476 3.073428 
293.000977 0.283894 
293.11554 0.275243 
293.149445 1.187105 
293.171082 0.050178 
293.18689 0.053303 
293.988068 0.029932 
294.132324 0.714939 
295.164703 0.040045 
296.978577 0.04856 
297.932434 0.014127 
297.966034 0.015215 
299.140717 0.42036 
299.163727 1.300264 
300.159393 0.350262 
300.195221 0.521734 
300.938721 0.052649 
301.095428 0.353913 
301.121185 0.156732 
301.141541 7.034019 
301.177704 0.264099 
301.192047 0.241926 
302.090332 0.200388 
302.147003 0.673871 
302.173981 0.205447 
302.633911 0.025425 
302.936798 2.5619 
302.968384 0.093463 
302.987427 0.047515 
303.073853 0.538424 
303.111359 47.45895 
303.131653 2.749341 
303.169983 1.675087 
303.189484 0.093441 
303.231476 0.137578 
303.348389 0.02848 
303.941223 0.015116 
303.991486 0.092315 
304.098267 0.276326 
304.134827 0.216862 
304.152771 1.371259 
304.188843 0.118808 
304.902039 0.168412 
304.965424 0.270884 
304.985138 4.758148 
305.072235 0.448562 
305.090485 7.985149 
305.112213 0.697266 
305.156891 28.285234 
305.186432 1.631643 
305.207855 0.131595 
305.24704 0.226239 
305.92337 0.032737 
305.954926 0.292486 
305.987946 3.372998 
306.064728 0.019218 
306.084198 0.335132 
306.115601 0.045375 
306.13208 0.67296 
306.169037 1.538661 
306.933228 0.013636 
307.000092 0.015132 
307.088684 0.083209 
307.126678 15.412307 
307.14801 0.019353 
307.165192 1.775717 
307.271637 4.691945 
308.111633 0.043283 
308.129547 0.511541 
308.147858 0.447023 
308.957825 1.467722 
309.179749 0.198826 
310.014862 0.059069 
310.823517 0.179486 
310.842773 0.337978 
310.959717 0.014416 
311.12738 20.717505 
311.83075 0.544731 
312.131042 3.756748 
312.838806 4.240704 
315.133301 0.218479 
315.605957 0.020275 
316.115997 0.081812 
316.227295 0.018947 
316.904816 0.166535 
317.127197 1.22647 
317.149536 0.934884 
317.186462 3.766401 
317.205475 0.076458 
318.130951 0.096896 
318.167969 0.326647 
318.187469 0.125732 
318.205536 0.062126 
318.830292 0.018794 
318.919464 0.158695 
319.00058 0.054255 
319.105591 0.106845 
319.128937 0.20611 
319.164581 3.726839 
319.202118 1.064691 
319.83609 3.326066 
319.999451 0.019233 
320.116211 0.040752 
320.147156 0.100998 
320.165009 0.243691 
320.184967 0.554749 
320.220734 0.451735 
320.947235 1.082368 
320.980377 0.125601 
321.084503 0.061689 
321.10199 0.03677 
321.121643 0.697493 
321.143677 0.445824 
321.160065 0.640995 
321.180908 0.358613 
321.837982 0.190122 
322.824066 0.01582 
322.948792 0.019149 
322.974884 0.046815 
322.995697 3.498945 
323.159332 0.182148 
323.173096 0.027224 
323.999237 0.072491 
325.118713 0.224931 
325.830566 0.018576 
326.817902 0.06507 
327.134857 0.206571 
327.170654 0.075275 
327.8255 3.747787 
328.11731 0.078916 
328.154602 0.389546 
328.19046 1.397656 
328.833466 3.49179 
329.11438 0.0229 
329.136627 7.867976 
329.186096 0.141906 
329.840942 0.508663 
330.141479 0.761814 
330.169281 0.187923 
330.836609 0.014234 
330.932434 0.060451 
331.129578 0.462353 
331.165283 2.370663 
331.201233 0.130618 
331.224823 0.248179 
331.26355 0.14344 
332.110962 0.128323 
332.146515 0.455852 
332.163055 0.196857 
332.192444 0.12207 
332.197479 0.116945 
333.129761 0.193451 
333.14502 0.749291 
333.165497 1.466045 
333.181946 0.797324 
333.202209 0.515814 
333.240479 0.875412 
333.278229 0.396021 
333.815582 0.133595 
334.139313 0.171768 
334.16095 0.313047 
334.177002 1.362875 
334.212128 3.212541 
334.23584 0.03046 
334.842987 0.196929 
334.959625 0.014996 
336.838531 5.216435 
337.012115 0.018924 
337.175812 0.093935 
337.846161 3.248488 
338.125305 0.082833 
338.841705 0.951513 
338.876251 0.054644 
339.169891 1.382101 
339.848175 0.386082 
341.585205 0.019782 
343.283173 0.013311 
344.162323 0.089261 
344.187073 0.060081 
344.828735 2.135206 
345.144318 3.782333 
345.180878 6.724381 
345.217255 0.507752 
345.241028 0.063546 
345.833893 0.173523 
346.127045 0.279888 
346.140656 0.488894 
346.16452 2.925235 
346.177032 0.620844 
346.200104 4.552018 
347.122314 0.772403 
347.158813 11.107231 
347.196625 3.854852 
347.294403 0.535057 
348.122406 0.377321 
348.141907 0.735986 
348.179108 4.953065 
348.216949 3.280894 
348.942749 0.017849 
349.162689 0.36623 
350.156769 0.024072 
350.945007 0.03843 
351.825623 0.091345 
352.832916 0.0368 
354.848938 0.973589 
356.850433 0.040719 
357.180573 0.023074 
359.115295 0.052499 
362.172516 0.637076 
362.207306 3.757394 
362.235138 3.398695 
362.271759 0.251931 
362.303833 1.129577 
362.841339 1.502946 
362.991516 0.01422 
363.107269 0.051728 
363.117096 0.023338 
363.161743 90.674805 
363.191132 23.535803 
363.213745 98.436348 
363.249847 21.517574 
363.286499 2.840999 
363.326324 0.300342 
364.140259 1.887213 
364.164978 5.943192 
364.184814 24.415876 
364.216187 32.852489 
364.252441 5.219668 
364.284698 0.366732 
364.321411 0.08196 
365.104492 18.336979 
365.133942 5.242641 
365.16748 31.028009 
365.192841 28.517759 
365.228851 33.785583 
365.26532 6.60464 
365.303345 0.120217 
366.109283 1.203688 
366.133514 1.401392 
366.152069 2.519192 
366.169373 1.218997 
366.19873 13.263362 
366.228241 31.302752 
366.271301 0.420299 
369.83609 6.880297 
370.840515 1.000818 
371.837555 1.397384 
380.851807 0.626701 
383.850952 0.044461 
385.852142 0.039351 
387.84671 4.05724 
388.848907 0.215305 
389.848145 0.74583 
END IONS

