BEGIN IONS
PEPMASS=280.155
CHARGE=1+
COMPOUNDNAME=Isocycloheximide
LIBRARYQUALITY=3
SMILES=N/A
INCHIKEY=YPHMISFOHDHNIV-UHFFFAOYSA-N
INCHI=InChI=1S/C15H23NO4/c1-8-3-9(2)15(20)11(4-8)12(17)5-10-6-13(18)16-14(19)7-10/h8-12,17H,3-7H2,1-2H3,(H,16,18,19)
MSLEVEL=2
SOURCE_INSTRUMENT=N/A-ESI-QFT
FILENAME=library_mgf.mgf
SEQ=*..*
IONMODE=negative
ORGANISM=MONA
NAME=Isocycloheximide [M-H]-
PI=MoNA
DATACOLLECTOR=MoNA:VF-NPL-QEHF023903
PUBMED=N/A
SUBMITUSER=mwang87
TAGS=
SPECTRUMID=CCMSLIB00004714966
SCANS=23903
50.711094 0.055451 
50.774502 0.036092 
51.799683 0.060456 
52.274017 0.044094 
52.39114 0.060181 
52.392582 0.047469 
52.580582 0.058102 
52.602676 0.068472 
53.131817 0.043704 
53.206211 0.049561 
53.371738 0.038459 
53.52272 0.058093 
54.092056 0.038311 
55.006603 0.045615 
55.312618 0.055854 
55.63895 0.04835 
56.215446 0.050867 
56.531349 0.044283 
57.061409 0.050737 
58.008537 0.053099 
58.028423 9.077465 
59.012447 3.299634 
60.214436 0.051409 
60.912544 0.060137 
61.5355 0.038836 
61.619785 0.053784 
61.802444 0.052512 
64.156883 0.045433 
64.950912 0.052356 
65.983322 0.043574 
66.033516 2.823335 
67.017517 0.413592 
67.116898 0.048493 
67.217926 0.035149 
67.782402 0.049849 
67.98719 0.034451 
69.022728 0.228709 
69.033211 100.0 
69.043709 0.53508 
69.302567 0.047432 
70.036537 3.854916 
70.492493 0.049938 
70.652565 0.042682 
70.685081 0.03788 
71.853439 0.05905 
72.33519 0.054054 
72.573303 0.039922 
72.747261 0.042802 
73.443352 0.051684 
75.025993 0.844549 
75.892235 0.038518 
77.005341 0.201374 
78.966789 1.207053 
78.98452 0.041195 
79.047379 0.042071 
79.430611 0.060129 
79.603172 0.055796 
79.919716 0.054935 
79.955994 3.71179 
80.217064 0.046656 
80.963844 1.42602 
83.048889 0.447823 
83.340706 0.052091 
84.044098 1.994054 
84.672951 0.040801 
85.028175 0.970002 
87.153984 0.056764 
88.56218 0.031481 
90.518768 0.055357 
91.125717 0.05204 
91.553146 0.058502 
91.685562 0.034546 
91.777374 0.037802 
92.978287 0.050529 
94.028503 1.09736 
94.08448 0.048958 
94.9795 0.732017 
95.01252 14.000211 
95.998016 0.055988 
96.015816 0.102162 
96.958755 2.454965 
97.274033 0.037005 
98.059853 4.194624 
98.062927 0.058918 
99.595062 0.048542 
99.631218 0.061969 
102.576462 0.052983 
103.130569 0.062554 
105.072952 0.056611 
108.682037 0.052793 
109.353783 0.053297 
110.001884 0.089575 
110.023483 90.240707 
110.044556 0.187519 
110.059914 0.382118 
111.026588 4.001982 
111.043808 0.986103 
112.039162 6.592181 
112.410477 0.046391 
112.936058 0.05387 
113.023155 0.067032 
114.067268 0.053426 
114.129585 0.045806 
121.673332 0.03833 
123.08033 7.860367 
124.03923 0.980502 
124.08326 0.163311 
125.095978 49.585964 
126.099129 2.938736 
126.54985 0.0551 
127.731926 0.048475 
128.034012 0.142832 
138.951614 0.159384 
141.043945 0.050734 
144.119492 0.035499 
151.111694 22.029629 
152.115082 1.850783 
152.158691 0.051569 
154.014633 0.050707 
154.04982 53.267799 
154.894836 0.05143 
155.053238 3.873289 
155.972626 0.035488 
159.820068 0.0597 
166.003143 0.03634 
167.10675 2.476193 
168.110443 0.206433 
168.453659 0.051115 
169.201645 0.053452 
169.360245 0.035773 
173.764526 0.037433 
176.744278 0.050616 
177.127487 10.210082 
178.131287 0.900512 
179.88089 0.045412 
183.855316 0.0763 
189.532608 0.049326 
192.815125 0.043956 
193.122711 1.200945 
194.126068 0.150804 
195.164703 0.047266 
196.202972 0.05741 
199.169357 0.060581 
202.840897 0.057885 
215.578293 0.900786 
215.585114 1.72309 
215.845718 0.10636 
232.964508 0.052031 
239.477509 0.051004 
243.347641 0.058612 
262.144714 0.085209 
268.561584 0.04859 
279.163483 0.45359 
281.143524 0.051626 
281.248535 1.893703 
284.813721 0.057746 
291.177063 0.061311 
297.417938 0.059692 
301.018524 0.054448 
303.873688 0.053715 
END IONS

