BEGIN IONS
PEPMASS=251.091
CHARGE=1+
COMPOUNDNAME=Citrinin
LIBRARYQUALITY=3
SMILES=N/A
INCHIKEY=CQIUKKVOEOPUDV-IYSWYEEDSA-N
INCHI=InChI=1S/C13H14O5/c1-5-7(3)18-4-8-9(5)6(2)11(14)10(12(8)15)13(16)17/h4-5,7,15H,1-3H3,(H,16,17)/t5-,7-/m1/s1
MSLEVEL=2
SOURCE_INSTRUMENT=N/A-ESI-QFT
FILENAME=library_mgf.mgf
SEQ=*..*
IONMODE=positive
ORGANISM=MONA
NAME=Citrinin [M+H]+
PI=MoNA
DATACOLLECTOR=MoNA:VF-NPL-QEHF027290
PUBMED=N/A
SUBMITUSER=mwang87
TAGS=
SPECTRUMID=CCMSLIB00004720871
SCANS=27290
50.052895 0.002279 
50.349808 0.007721 
51.263664 0.002036 
52.829643 0.00202 
53.339394 0.002483 
53.448593 0.0092 
54.522717 0.00192 
54.756752 0.002391 
54.816628 0.002186 
55.054424 0.002162 
55.343262 0.005563 
56.197201 0.019662 
58.450291 0.002341 
58.759678 0.01289 
58.999592 0.012978 
59.04929 0.006314 
60.612736 0.002455 
60.625202 0.008259 
61.986591 0.003934 
62.018715 0.00365 
62.25346 0.012763 
62.337582 0.014157 
62.394798 0.006859 
63.874683 0.001914 
64.159859 0.001991 
66.544067 0.006938 
66.655014 0.011726 
66.878464 0.007878 
66.880257 0.014275 
67.37925 0.006781 
67.794739 0.005543 
68.940529 0.005375 
69.02079 0.005428 
69.216667 0.013964 
70.44487 0.001824 
70.788925 0.00858 
70.828033 0.014802 
71.019676 0.012328 
71.0336 0.00212 
71.085854 0.002745 
71.401016 0.003937 
71.529228 0.007463 
72.722595 0.007673 
73.644669 0.009481 
74.371223 0.005297 
74.586731 0.002623 
74.918938 0.008228 
75.209549 0.011978 
76.4244 0.002004 
76.928772 0.002489 
77.128075 0.002228 
77.665115 0.011302 
78.299644 0.00799 
79.021179 0.015398 
79.470612 0.002599 
81.069389 0.009527 
81.756912 0.012698 
81.81456 0.005652 
81.977676 0.002477 
83.47567 0.011691 
83.920509 0.008019 
84.588242 0.005416 
84.972069 0.002355 
85.377319 0.00255 
87.457359 0.002705 
87.668617 0.003981 
87.939247 0.002572 
90.66951 0.004918 
91.054649 0.015188 
91.967796 0.005425 
92.490913 0.002557 
92.57843 0.002111 
93.069885 0.011753 
94.189819 0.013634 
95.085403 0.233885 
96.044434 0.003031 
96.258598 0.002371 
96.350479 0.005229 
96.791168 0.005908 
97.997986 0.004517 
100.655235 0.002366 
101.391556 0.008734 
102.164703 0.004978 
102.77771 0.002698 
104.09819 0.002561 
105.069839 0.00955 
105.41069 0.005497 
106.679474 0.002005 
107.049019 0.015237 
107.085739 0.021875 
107.512581 0.012891 
109.101006 0.048515 
109.142433 0.016111 
109.748734 0.01392 
110.096077 0.002235 
110.130241 0.002612 
111.016357 0.007152 
111.043518 0.002198 
111.953163 0.002823 
112.431076 0.005563 
112.455589 0.01242 
113.582481 0.002547 
114.754745 0.002554 
115.016121 0.007242 
115.748711 0.008841 
115.904686 0.011358 
116.005203 0.003015 
116.328415 0.002045 
116.780052 0.014247 
117.049202 0.002445 
117.162949 0.015873 
117.514313 0.014861 
118.915428 0.012231 
119.081223 0.005609 
119.085442 0.630059 
120.15947 0.005693 
121.064903 0.022172 
121.101242 0.017186 
121.195137 0.007504 
123.080246 0.375322 
127.045059 0.011176 
128.134247 0.002288 
129.149017 0.007148 
131.085434 0.185153 
131.62381 0.00744 
133.065018 0.002981 
133.101166 0.002396 
133.135651 0.002296 
134.978607 0.002532 
135.080246 0.296159 
135.934174 0.010027 
137.096069 1.143145 
137.844772 0.012302 
137.99173 0.002728 
138.09935 0.00746 
138.127258 0.002511 
139.272537 0.011242 
139.668304 0.011654 
139.953308 0.002102 
140.744736 0.00214 
145.064835 0.00655 
147.080338 3.385625 
147.463623 0.008615 
147.719788 0.01195 
148.083725 0.225381 
149.05954 0.00803 
149.096024 0.242822 
152.284958 0.007741 
153.548035 0.00763 
154.108276 0.011754 
154.576981 0.007222 
158.213058 0.007511 
159.080246 0.29974 
160.73111 0.006044 
162.11525 0.012278 
162.761108 0.011815 
162.956131 0.010365 
163.038055 0.003709 
163.075226 0.471497 
163.285751 0.00314 
163.346329 0.002751 
163.926483 0.00221 
164.080338 0.012882 
165.062134 0.008323 
165.090988 0.395156 
165.773804 0.004231 
166.093857 0.019424 
169.064636 0.142365 
169.826172 0.002308 
170.288284 0.002736 
170.505508 0.005414 
175.038895 0.008825 
176.013519 0.016049 
177.018112 0.086762 
177.055405 0.013227 
177.090942 0.488861 
178.093948 0.002648 
178.523087 0.00576 
179.859436 0.013099 
181.892853 0.007004 
183.837509 0.014915 
185.060028 0.003582 
185.714111 0.012594 
186.179504 0.015093 
186.190445 0.012307 
187.075211 0.679913 
187.239792 0.00406 
189.054611 0.155425 
189.655716 0.002427 
189.925491 0.023806 
190.06218 0.030419 
191.033875 0.097987 
191.070145 4.408812 
192.073242 0.484688 
195.028656 0.153908 
201.132156 0.0081 
203.033844 0.215537 
204.041061 0.174117 
204.170731 0.011836 
205.049667 0.165852 
205.0858 6.580842 
205.096375 0.09883 
206.089188 0.792615 
207.484879 0.005773 
209.07045 0.013029 
209.080719 2.240145 
209.145782 0.005508 
210.084137 0.150457 
214.915527 0.01653 
215.05864 0.019119 
215.070038 2.935531 
216.073578 0.325549 
216.361298 0.167392 
216.369553 0.161642 
216.381561 0.008365 
218.057266 0.71487 
218.457581 0.01086 
219.06015 0.015368 
219.602585 0.015061 
221.117599 0.005935 
223.096313 0.019011 
223.383087 0.00226 
226.306168 0.008733 
232.106461 0.005449 
233.05986 0.01258 
233.080704 100.0 
233.579681 0.00269 
234.083969 13.874974 
234.098206 0.146415 
235.086411 0.622781 
236.922119 0.014866 
238.87442 0.004239 
244.211197 0.005511 
244.611115 0.002161 
249.111984 0.062392 
250.11528 0.006331 
250.238205 0.002457 
251.091171 16.491398 
252.094452 2.205584 
252.26825 0.051702 
253.0961 0.065668 
261.773682 0.002152 
262.573853 0.016549 
265.106812 0.227106 
266.108917 0.013068 
266.272705 0.009887 
271.051849 0.011683 
273.717224 0.01769 
273.780884 0.003604 
END IONS

