BEGIN IONS
PEPMASS=388.178
CHARGE=1+
COMPOUNDNAME=Roquefortine C
LIBRARYQUALITY=3
SMILES=N/A
INCHIKEY=SPWSUFUPTSJWNG-LIMLNZRCSA-N
INCHI=InChI=1S/C22H23N5O2/c1-4-21(2,3)22-10-17-18(28)25-16(9-13-11-23-12-24-13)19(29)27(17)20(22)26-15-8-6-5-7-14(15)22/h4-9,11-12,17,20,26H,1,10H2,2-3H3,(H,23,24)(H,25,28)/b16-9-/t17-,20-,22+/m0/s1
MSLEVEL=2
SOURCE_INSTRUMENT=N/A-ESI-QFT
FILENAME=library_mgf.mgf
SEQ=*..*
IONMODE=negative
ORGANISM=MONA
NAME=Roquefortine C [M-H]-
PI=MoNA
DATACOLLECTOR=MoNA:VF-NPL-QEHF016402
PUBMED=N/A
SUBMITUSER=mwang87
TAGS=
SPECTRUMID=CCMSLIB00004707465
SCANS=16402
51.029545 0.008438 
51.747227 0.008139 
51.956333 0.008716 
51.964771 0.010217 
52.678555 0.009647 
52.706886 0.008299 
53.325184 0.006656 
53.533802 0.010343 
53.924217 0.006401 
53.936409 0.006865 
54.010204 0.006015 
54.170033 0.010117 
54.4538 0.005425 
54.619526 0.012695 
54.690231 0.006327 
54.869522 0.008029 
55.249889 0.008103 
56.168224 0.009521 
56.279289 0.006927 
56.684837 0.008918 
56.707245 0.009543 
56.791039 0.008743 
57.034351 0.007994 
57.067833 0.008262 
57.313431 0.009279 
57.423275 0.006416 
58.109222 0.008324 
58.605301 0.011342 
58.91877 0.006134 
59.012459 0.458117 
59.358459 0.008587 
59.445522 0.007157 
60.335545 0.010716 
60.824421 0.008417 
60.95673 0.006606 
61.352673 0.013021 
61.598583 0.008697 
61.833481 0.012183 
62.637218 0.01037 
63.164047 0.010967 
63.298492 0.005512 
63.825405 0.007093 
64.249832 0.01017 
65.032089 0.011459 
65.481819 0.007525 
65.527626 0.005417 
65.821365 0.009601 
66.004967 0.00561 
67.028778 0.130399 
67.235352 0.010203 
67.512589 0.006717 
67.555862 0.009433 
67.877808 0.009646 
68.48687 0.009132 
69.156639 0.008559 
69.384941 0.009119 
70.894302 0.010609 
71.570511 0.006669 
71.64006 0.00842 
71.865189 0.00832 
71.991676 0.011915 
72.278183 0.008696 
73.534355 0.005451 
73.684517 0.008922 
74.37709 0.010063 
74.416695 0.007737 
74.502838 0.009049 
74.689339 0.008757 
76.392021 0.009985 
77.271759 0.009977 
78.984535 0.078705 
79.028824 0.02018 
79.956055 0.009816 
80.015274 0.007092 
80.598907 0.013146 
80.728279 0.011033 
80.963768 0.08182 
81.676704 0.009871 
82.121117 0.007102 
84.395538 0.009051 
84.878372 0.00674 
89.018578 0.01032 
89.215034 0.009283 
89.252922 0.007713 
89.30442 0.008205 
89.822083 0.009477 
90.193398 0.009414 
91.028946 0.012017 
91.229851 0.011578 
91.78833 0.007798 
91.910118 0.006066 
92.016899 0.010191 
92.023994 0.079228 
92.146889 0.00531 
92.277916 0.010465 
92.492531 0.006472 
94.407249 0.005612 
94.979492 0.27142 
95.02372 0.465978 
95.278152 0.009164 
96.091682 0.006856 
96.443924 0.006132 
96.959099 0.005722 
97.002998 0.225499 
97.554916 0.010024 
97.932922 0.007413 
98.556213 0.009967 
99.110229 0.006103 
100.485909 0.011428 
102.152336 0.009121 
103.768333 0.010524 
105.031937 0.530268 
105.204796 0.011796 
105.495483 0.01142 
105.524475 0.006265 
105.819466 0.010562 
106.039726 0.483949 
107.047592 0.709303 
108.031662 0.051211 
108.055367 0.083117 
108.290489 0.009346 
110.010826 0.104583 
111.018684 1.010769 
111.043663 0.006421 
111.977501 0.008532 
112.345413 0.006808 
112.486977 0.006723 
116.678711 0.010493 
118.039673 0.096076 
118.606819 0.00602 
119.224426 0.010189 
119.745972 0.008821 
120.031631 0.149972 
120.055527 0.103463 
120.147964 0.007623 
120.242172 0.010949 
121.149132 0.009794 
122.034409 0.013285 
123.018692 1.987722 
123.042458 0.011338 
123.077606 0.006151 
124.022049 0.006988 
124.956932 0.010729 
126.181732 0.010364 
126.922485 0.011137 
127.613594 0.006457 
127.753967 0.006421 
133.026932 0.805894 
133.189957 0.007918 
133.779602 0.010745 
134.034805 0.97577 
135.04274 0.253694 
135.079376 0.010914 
135.860352 0.010093 
137.087646 0.010967 
140.008484 0.008545 
140.940765 0.006788 
145.42865 0.009452 
146.438675 0.005994 
147.042786 0.291455 
147.066544 0.039826 
147.783661 0.009651 
148.332352 0.006839 
149.022079 0.022121 
150.029984 0.032121 
150.047684 0.013519 
150.053543 1.229031 
150.540726 0.010537 
151.573257 0.010287 
152.38829 0.010332 
156.068146 0.666056 
157.804871 0.007544 
158.164612 0.010428 
159.939606 0.007844 
160.050308 0.0114 
161.045807 0.233098 
162.029251 0.016554 
162.053818 0.023456 
163.061462 0.014166 
163.090149 0.010945 
163.17041 0.006102 
164.003967 0.006417 
164.04538 0.025829 
172.575287 0.0082 
174.029953 0.067511 
175.061661 0.060488 
176.032913 2.165101 
177.040833 5.054121 
178.044739 0.211235 
179.032867 0.009925 
180.103622 0.00808 
182.353806 0.00977 
183.055634 0.077538 
184.112274 0.557691 
186.268753 0.01007 
186.426956 0.008403 
186.802139 0.007041 
187.464203 0.008734 
189.040848 19.656708 
190.032547 0.054358 
190.048782 100.0 
191.054535 8.102668 
191.213989 0.006332 
192.051422 0.010944 
192.060699 0.366456 
193.03537 0.007243 
193.815414 0.006513 
195.712296 0.010708 
203.056625 5.595846 
204.060547 0.475198 
205.035995 0.763586 
209.245224 0.010944 
210.653885 0.011475 
214.033569 0.318194 
214.041153 0.27563 
214.050858 0.116465 
219.627884 0.009933 
225.541748 0.00918 
225.810806 0.008131 
229.810364 0.010985 
230.290497 0.008368 
231.972595 0.00706 
233.444946 0.012082 
239.068405 0.012504 
245.414902 0.010254 
245.919678 0.00636 
247.098358 0.014899 
249.729996 0.007349 
251.05542 0.010088 
252.712357 0.010302 
260.082306 0.009505 
263.325195 0.009562 
267.034302 0.008545 
269.092163 0.006922 
275.09375 0.120252 
276.101044 0.302836 
286.050842 0.013829 
294.005493 0.009449 
296.139313 0.008094 
296.816254 0.010833 
296.947815 0.009859 
297.641693 0.007197 
299.191193 0.007141 
304.219238 0.015707 
304.931366 0.006487 
305.917847 0.008218 
306.039124 0.007184 
309.486938 0.011716 
309.643341 0.00654 
312.746185 0.009629 
316.010406 0.010871 
317.092407 0.023201 
318.099426 4.206005 
318.382416 0.011235 
319.105347 1.365823 
320.113251 0.236037 
327.969116 0.010098 
335.196716 0.011671 
343.42749 0.010333 
344.42749 0.011494 
346.105072 0.006335 
349.013489 0.009494 
351.097168 0.583772 
352.103821 0.012593 
361.167816 0.012349 
369.5224 0.012508 
388.177704 37.69611 
389.181183 9.927183 
390.184265 0.96131 
390.575867 0.009227 
393.359619 0.011951 
396.370697 0.009995 
397.678864 0.011196 
405.714813 0.006769 
END IONS

