BEGIN IONS
PEPMASS=506.222
CHARGE=1+
COMPOUNDNAME=TOBRAMYCIN
LIBRARYQUALITY=3
SMILES=N/A
INCHIKEY=NLVFBUXFDBBNBW-PBSUHMDJSA-N
INCHI=InChI=1S/C18H37N5O9/c19-3-9-8(25)2-7(22)17(29-9)31-15-5(20)1-6(21)16(14(15)28)32-18-13(27)11(23)12(26)10(4-24)30-18/h5-18,24-28H,1-4,19-23H2/t5-,6+,7+,8-,9+,10+,11-,12+,13+,14-,15+,16-,17+,18+/m0/s1
MSLEVEL=2
SOURCE_INSTRUMENT=N/A-ESI-QFT
FILENAME=library_mgf.mgf
SEQ=*..*
IONMODE=positive
ORGANISM=MONA
NAME=TOBRAMYCIN [M+K]+
PI=MoNA
DATACOLLECTOR=MoNA:VF-NPL-QEHF011818
PUBMED=N/A
SUBMITUSER=mwang87
TAGS=
SPECTRUMID=CCMSLIB00004702881
SCANS=11818
50.166866 0.004466 
50.491764 0.009171 
50.533237 0.004272 
50.984428 0.004176 
51.057571 0.008588 
51.261742 0.005686 
51.575718 0.006561 
52.01022 0.004258 
52.198208 0.004187 
52.54575 0.004165 
52.796097 0.010201 
53.219139 0.006222 
53.375751 0.004119 
53.819656 0.004929 
54.616333 0.009487 
54.938747 0.006964 
55.018559 0.026238 
55.054893 0.251234 
55.792282 0.005023 
55.934944 0.009584 
56.050159 0.039172 
56.184464 0.008832 
56.637005 0.004518 
56.680061 0.004983 
56.76683 0.008468 
57.034122 0.077467 
57.070602 2.558662 
57.126167 0.005886 
57.491035 0.004452 
58.065693 0.030666 
58.073875 0.045099 
58.17318 0.004735 
58.18507 0.007207 
58.495632 0.006913 
58.862453 0.00602 
59.049774 0.148728 
59.061047 0.269831 
59.28883 0.004732 
59.966976 0.00557 
59.99091 0.14691 
59.992352 0.006143 
60.045002 0.014535 
60.071285 0.006904 
60.183273 0.008279 
60.202019 0.008346 
60.406193 0.00609 
60.492512 0.007391 
60.729874 0.007232 
61.011257 0.186577 
61.178097 0.004847 
61.739674 0.006617 
61.741486 0.007254 
61.834015 0.005307 
62.01907 0.0719 
62.32275 0.006511 
62.658108 0.005603 
62.98241 1.008991 
63.068241 0.004719 
63.680344 0.006283 
63.837337 0.006256 
63.920429 0.00785 
65.091492 0.006745 
65.579422 0.007556 
66.368469 0.005181 
66.551849 0.006626 
67.054893 0.603137 
67.398132 0.00884 
67.421112 0.00464 
67.549973 0.004642 
67.86203 0.006783 
67.966583 0.006185 
68.058075 0.00786 
68.704094 0.006232 
69.034035 0.027364 
69.07048 0.529847 
69.072426 0.004565 
69.362549 0.004332 
69.507698 0.007929 
70.065704 0.010682 
70.369354 0.005306 
70.577164 0.005031 
70.771721 0.006301 
71.003487 0.008127 
71.018517 0.004901 
71.049667 0.157779 
71.086136 0.879092 
72.044922 0.007018 
72.074074 0.005859 
72.081253 0.01628 
72.089401 0.008214 
72.391762 0.006501 
72.84539 0.008093 
72.933563 0.00617 
72.937721 0.009037 
73.02903 1.277035 
73.047333 0.247284 
73.065285 0.138037 
74.032288 0.005994 
74.096992 0.111806 
74.47937 0.007956 
74.745125 0.008871 
74.757515 0.007835 
74.982628 0.007479 
76.076202 0.028494 
76.577194 0.006233 
79.021729 0.537792 
79.054626 0.162102 
79.465668 0.004844 
80.054909 0.053533 
80.948326 0.240682 
81.070419 0.769852 
82.246002 0.004496 
82.945381 0.026694 
83.0495 0.056264 
83.086029 0.552582 
84.225197 0.007151 
84.379044 0.010145 
85.028908 0.030605 
85.065155 0.110608 
85.101707 0.498685 
85.478165 0.010023 
86.060226 0.006415 
86.096832 0.082746 
86.104942 0.007788 
87.044533 1.451455 
87.194702 0.009477 
87.977486 0.03211 
87.982033 0.004522 
88.047646 0.037272 
88.076088 0.010666 
88.762825 0.01002 
88.978554 0.055417 
89.060165 3.33484 
89.920662 0.004205 
90.063438 0.095969 
90.947952 0.004907 
90.977058 0.023708 
91.054756 0.140496 
91.057793 2.132234 
91.082619 0.007582 
91.271484 0.004256 
92.057343 0.061854 
92.060867 0.024005 
92.104523 0.008125 
92.372261 0.010304 
93.036835 0.014522 
93.054527 0.034915 
93.070213 0.330533 
95.049355 0.04699 
95.08593 0.831209 
96.080994 0.0509 
96.089172 0.019634 
96.922005 0.010387 
97.065033 0.077024 
97.101471 0.414599 
98.096649 0.017074 
98.327469 0.00722 
98.621323 0.005496 
98.975639 0.005169 
99.044296 0.083857 
99.080688 0.046101 
99.117142 0.00856 
99.341537 0.007664 
99.497253 0.007988 
99.527077 0.008832 
99.669273 0.007087 
99.878487 0.008411 
100.075897 0.148232 
100.146393 0.003906 
100.210983 0.008794 
100.708153 0.008471 
101.003418 0.550408 
101.059891 0.108661 
101.454132 0.007072 
102.067787 0.050085 
102.496429 0.006023 
102.83596 0.007684 
102.999115 0.008031 
103.039108 0.030547 
103.075775 0.006623 
104.252632 0.005988 
104.992538 0.248153 
105.0336 0.018089 
105.069977 0.1012 
105.239677 0.006684 
106.049301 0.004042 
106.06488 0.008332 
107.049263 0.008171 
107.070351 0.085865 
107.08577 0.322468 
107.303017 0.00804 
108.315666 0.005383 
108.74263 0.006582 
109.064949 0.015915 
109.101387 0.668124 
109.435478 0.004624 
109.936226 0.00654 
110.116051 0.004699 
110.662315 0.004938 
111.04422 0.019258 
111.080475 0.105571 
111.11689 0.074123 
111.187248 0.007823 
111.549324 0.008199 
112.133766 0.008267 
112.415649 0.006617 
113.041901 0.008562 
113.059837 0.149085 
113.107475 0.389438 
115.631172 0.010656 
116.052994 0.935623 
116.408661 0.004959 
117.055359 0.015916 
117.069923 0.017204 
117.09108 0.029363 
117.380653 0.006721 
117.664543 0.007096 
117.970673 0.00807 
118.048836 0.019549 
118.086266 0.007296 
118.971512 0.042979 
119.085503 0.167806 
120.047623 0.011625 
120.065414 0.010447 
120.987434 0.095642 
121.064751 0.027226 
121.101212 0.282879 
123.080353 0.037559 
123.091629 0.041226 
123.116898 0.298355 
124.484207 0.004506 
124.955482 0.008443 
125.059189 0.01121 
125.095963 0.125794 
125.861198 0.004816 
126.127525 0.007419 
126.457748 0.057129 
126.794228 0.005565 
127.03669 0.0535 
127.074837 0.009481 
128.143112 0.007018 
128.851883 0.006235 
128.953674 0.011406 
130.122604 0.008131 
130.159012 6.092424 
131.070206 0.118484 
131.085266 0.067112 
131.162277 0.344353 
132.080612 0.005763 
132.987091 0.047878 
133.0858 1.238406 
133.090759 0.004783 
133.100937 0.188136 
133.802124 0.0079 
134.08931 0.028268 
134.095978 0.018459 
134.425934 0.004914 
134.520569 0.00689 
134.81485 0.007653 
134.856277 0.008021 
134.996429 0.055627 
135.002792 0.385532 
135.055069 0.007501 
135.080307 0.161845 
135.11673 0.243737 
135.141998 0.007405 
137.059921 0.019098 
137.09581 0.033728 
137.132324 0.053361 
137.916199 0.007989 
139.111404 0.020987 
140.068054 0.034738 
140.081375 0.00669 
140.143158 0.401697 
140.795502 0.005325 
140.958847 0.009032 
141.112717 0.004783 
141.146362 0.022632 
142.327393 0.006928 
145.101089 0.036927 
145.119064 0.005808 
146.096268 0.006319 
146.973587 0.007509 
147.116623 0.165318 
147.842529 0.004662 
148.112015 0.00679 
148.662399 0.004198 
149.023788 0.007493 
149.044647 0.229236 
149.070755 0.00942 
149.095673 0.027014 
149.132278 0.094187 
149.749466 0.007643 
150.089371 0.009619 
150.716019 0.007303 
150.950912 0.350664 
151.041046 0.005648 
151.074966 0.008793 
151.111649 0.019179 
151.147522 0.010164 
152.950836 0.008793 
153.091049 0.022953 
154.122345 0.050777 
155.067673 0.061036 
155.106506 0.008555 
155.205322 0.00657 
156.137985 0.371915 
157.100677 0.013643 
157.281525 0.008455 
157.856262 0.00716 
157.966415 0.009119 
158.096634 0.008806 
158.156921 0.007673 
159.116547 0.049356 
159.523468 0.006749 
161.132004 0.044951 
162.524017 0.005215 
163.07518 0.008003 
163.123215 0.009917 
163.147507 0.021835 
163.498444 0.00941 
164.920395 1.448922 
164.984695 0.006111 
165.090851 0.011572 
165.126968 0.006 
167.055283 1.614464 
168.054489 0.132082 
168.138031 0.458389 
168.916855 0.086951 
168.961349 0.175111 
169.05217 0.25755 
169.141678 0.014159 
170.904785 0.007018 
171.062836 0.159166 
171.148895 0.006076 
171.600235 0.007328 
172.115265 0.50346 
173.078812 0.013231 
173.095581 0.007906 
173.117981 0.048323 
173.80249 0.006051 
174.005814 0.011047 
175.096512 0.041652 
175.147919 0.031674 
175.976852 0.057854 
176.021301 0.008689 
176.476624 0.006536 
176.988495 0.011269 
177.090378 0.015415 
177.111832 0.079028 
177.126984 0.027377 
178.189453 0.006851 
178.793198 0.00981 
179.106598 0.009198 
179.142029 0.007131 
180.248077 0.008593 
180.894272 0.087146 
181.083649 0.007612 
183.384567 0.006383 
184.026825 0.006552 
184.07309 0.148202 
184.883606 0.007215 
185.164597 0.071579 
186.878662 0.041777 
186.927658 0.557385 
187.111557 0.01084 
187.147736 0.009259 
188.021454 0.052361 
188.92453 0.244718 
188.984268 0.078643 
189.089661 0.00772 
189.112488 0.009821 
189.99292 0.004945 
191.106293 0.03391 
192.661026 0.00849 
192.961533 0.27069 
194.115067 0.122228 
194.999695 0.10813 
195.098831 0.01009 
196.169052 0.041514 
198.042938 0.006715 
198.06427 0.008117 
198.821915 0.009897 
198.879257 0.011343 
199.094482 0.015626 
199.132629 0.039436 
199.168991 0.011581 
199.440063 0.006295 
200.942688 0.007383 
201.111023 0.006772 
203.416702 0.006576 
203.930237 0.155598 
204.087692 0.030272 
204.961807 0.010378 
205.927109 0.042045 
206.977264 0.005852 
206.994644 0.168713 
207.102219 0.007971 
208.324554 0.005861 
208.526749 0.008281 
209.117004 0.047619 
209.98111 0.008915 
210.18457 0.018864 
210.97171 0.215944 
213.111725 0.008769 
213.146805 0.007206 
213.378357 0.068089 
213.395187 0.406315 
213.404373 0.382636 
213.415833 0.107427 
214.356995 0.008767 
215.088806 0.243314 
217.013916 0.006759 
217.080856 0.031953 
217.122818 0.010168 
219.174149 0.33671 
220.3853 0.007007 
221.849197 0.004873 
222.84201 0.008036 
222.899338 0.00605 
224.199707 0.010583 
225.04274 0.077603 
226.0746 0.050174 
227.125259 0.010719 
227.200073 0.022284 
227.900009 0.00846 
228.090576 0.4989 
228.174133 0.008714 
229.169815 0.009305 
229.895721 1.359602 
230.897797 0.007675 
231.612686 0.004907 
232.09111 0.017215 
232.883392 0.102063 
233.891022 0.043326 
234.898926 0.014018 
235.13092 0.007644 
237.078949 0.190162 
238.286102 0.007867 
238.89357 0.00786 
238.913315 0.027225 
239.094467 0.039271 
239.14119 0.007921 
239.625153 0.007881 
240.092224 0.006333 
240.11203 0.007821 
240.908554 0.041824 
241.091583 0.006427 
241.215637 0.015404 
241.897583 0.030428 
243.120071 0.022168 
243.285629 0.009521 
243.896225 0.018745 
244.085464 0.074751 
245.891846 0.056054 
245.910721 0.006058 
246.101028 0.408869 
246.264679 0.011649 
246.898834 0.014364 
247.906143 1.481148 
248.908493 0.006303 
249.885788 0.057833 
250.177231 0.197339 
250.25267 0.078955 
250.893784 1.124789 
251.894638 0.034309 
252.062912 0.004841 
252.268219 0.013878 
254.905594 0.009184 
255.514114 0.008896 
256.062531 0.006761 
257.891174 0.07474 
258.113007 0.032652 
258.899048 0.328176 
259.114319 0.014722 
260.101562 0.025843 
260.162109 0.009068 
260.900696 0.006112 
261.8862 0.028717 
261.905945 0.31733 
261.920898 0.027681 
262.060089 0.006738 
262.112549 0.006613 
262.913666 0.246949 
263.901398 0.403134 
264.230988 0.006368 
264.267853 0.032596 
264.42749 0.008251 
264.908997 0.331511 
266.172028 0.035898 
269.208374 0.072318 
269.891754 0.028338 
270.100983 0.142524 
270.89975 0.012961 
272.159729 0.025667 
274.893555 0.644926 
274.912964 0.10666 
275.901733 3.761916 
276.909943 2.914907 
277.917603 0.248348 
278.908478 0.108475 
278.925018 0.030909 
279.896332 0.723116 
279.916321 3.627171 
280.750519 0.005503 
280.90271 0.025649 
280.924072 0.266969 
281.911621 2.387107 
282.918915 0.335093 
282.988159 0.009034 
283.262817 0.056833 
284.152924 0.029387 
286.913788 0.053198 
287.188141 0.008561 
288.11142 0.024324 
288.444672 0.008445 
288.908569 1.849419 
289.160797 0.007609 
289.916901 0.740724 
290.311096 0.006102 
290.923981 0.152609 
291.896301 0.451179 
292.902222 0.031257 
293.91217 0.257787 
293.931519 0.159816 
294.938538 0.014978 
295.205109 0.045279 
295.927887 1.374658 
296.931122 0.118268 
297.906799 0.631346 
297.924133 0.011673 
298.913971 0.032437 
299.061218 0.70072 
299.830963 0.0434 
300.06192 0.31273 
300.126312 0.007941 
300.909454 2.410922 
301.058594 0.670981 
301.910858 0.348784 
302.059906 0.032945 
302.16449 0.015678 
302.909027 0.248581 
303.933594 0.007411 
304.905701 0.089507 
304.923767 0.963448 
305.910461 0.078652 
305.928314 0.033248 
306.919373 14.252144 
307.921753 1.284021 
308.922363 0.098055 
309.278168 0.033579 
309.942719 0.011448 
310.912079 0.007094 
311.294037 0.027173 
313.204681 0.00644 
316.904205 0.809899 
316.924561 0.302179 
317.905792 0.055315 
317.926788 0.035112 
317.949066 0.162964 
318.919861 8.222497 
319.921997 1.656621 
320.918121 4.424655 
321.941315 0.008633 
322.914307 2.061501 
322.934204 0.246013 
323.921814 0.588229 
324.929871 4.145995 
325.931915 0.362931 
326.866852 0.007979 
327.157318 0.00884 
331.213409 0.004921 
331.927429 0.218316 
332.935303 0.336945 
333.8349 0.055562 
334.84314 0.052168 
334.914673 0.102107 
334.934875 0.21439 
336.838135 0.016931 
336.930359 1.722144 
337.937683 2.980349 
338.942474 0.538382 
339.942657 0.014247 
344.876892 0.016066 
344.975708 0.086847 
345.975311 0.052663 
346.973724 0.286368 
347.922333 0.071982 
348.111694 0.005633 
349.848297 0.043042 
350.945526 0.032334 
351.131317 0.012393 
351.846375 0.606382 
351.953552 0.05995 
352.924438 0.008716 
353.842255 0.006988 
356.847595 1.253798 
357.208679 0.00819 
357.832397 0.011922 
358.842926 11.609597 
359.028015 0.416964 
359.219635 0.02975 
360.027863 0.010319 
360.838165 0.082872 
364.348816 0.006128 
364.833862 0.156108 
365.835693 0.004747 
365.933228 0.419402 
366.269135 0.006074 
366.934082 0.01651 
367.147339 0.007425 
367.857941 0.103006 
368.183411 0.009604 
369.26712 0.046571 
369.857971 0.033361 
371.162659 0.020786 
372.839203 0.018841 
373.8508 0.007834 
374.858856 0.581515 
375.171112 0.008807 
375.846558 0.306924 
376.853821 5.154376 
378.850616 0.013624 
381.188782 0.094657 
381.836334 0.155704 
385.178284 0.040671 
386.871613 0.005354 
387.056488 0.009634 
387.150909 0.190369 
388.807892 0.006248 
388.833832 0.510848 
389.836761 0.029834 
389.862793 0.006737 
390.846405 0.02325 
390.870972 0.214811 
391.85733 0.184838 
392.283112 0.107806 
392.848785 0.670014 
393.856445 0.1393 
400.834595 0.007498 
400.985138 0.03559 
402.963837 0.019032 
403.244598 0.049646 
405.160767 0.793374 
405.85025 0.062806 
406.164581 0.014602 
406.844086 4.208249 
407.845276 0.900294 
408.27829 0.021026 
408.861938 1.130901 
409.274323 0.022454 
409.86145 0.14679 
410.271942 0.066754 
410.85968 0.175587 
415.859955 1.366567 
416.862579 0.055465 
417.856201 8.850397 
418.844818 0.007088 
418.994293 0.878732 
419.850677 0.016945 
419.994141 0.280992 
420.860229 0.229595 
420.991547 0.11382 
421.218292 0.044653 
421.865234 0.043175 
422.872955 0.01718 
423.100067 0.008147 
423.171295 0.067329 
424.854614 0.564287 
425.856354 0.032347 
426.872253 0.04974 
427.338623 0.071157 
427.791931 0.005977 
428.237183 0.310719 
428.314575 0.006355 
429.143341 0.053037 
429.240112 0.07514 
429.73111 0.007965 
429.84201 0.006016 
430.233917 0.021404 
433.869263 1.481111 
434.867584 0.220264 
435.212585 0.01055 
435.866882 3.969602 
438.226196 0.008036 
439.878937 0.029552 
440.884247 0.007897 
442.221069 0.009069 
445.192596 0.093571 
445.854462 0.009146 
446.851776 0.007937 
447.153992 0.465238 
447.346832 0.084825 
447.847076 2.834701 
448.34964 0.017691 
448.848602 0.631754 
449.849762 0.055785 
449.882874 0.224969 
451.414825 0.00637 
451.878845 0.563413 
452.87915 0.075857 
458.612274 0.005242 
459.32486 0.175957 
460.32782 0.035725 
461.862366 0.376585 
462.863464 0.05222 
463.201965 0.748525 
463.879913 0.817254 
464.205688 0.214648 
464.879486 0.170376 
465.164978 0.567391 
465.198944 0.114701 
465.856873 1.890256 
466.167877 0.025005 
466.858795 0.409253 
467.096954 0.012304 
469.012482 0.011885 
473.274902 0.013322 
474.870422 0.581066 
475.383881 0.020425 
475.871979 0.05617 
476.870789 0.3021 
477.893494 0.008886 
479.873016 0.047101 
481.888977 0.46774 
482.889465 0.111191 
483.867554 0.306912 
484.870239 0.009044 
487.289154 0.010466 
489.091644 0.008458 
489.302094 0.008009 
491.1586 0.012654 
491.886749 0.023682 
492.88092 2.916116 
493.882324 0.729242 
494.882294 0.171892 
495.905426 0.121086 
496.905914 0.014796 
502.238281 0.007295 
504.321106 1.690706 
504.359283 0.66291 
504.440002 0.021772 
505.333588 100.0 
506.337646 27.46307 
507.099121 0.078065 
507.290894 7.208971 
507.331207 14.143051 
507.436249 0.076084 
508.2948 1.18052 
508.333191 2.001027 
509.285278 0.005109 
513.983643 0.007323 
END IONS

