BEGIN IONS
PEPMASS=271.061
CHARGE=1+
COMPOUNDNAME=Massbank:FIO00058 Emodin
LIBRARYQUALITY=3
SMILES=Cc(c3)cc(c(=O)1)c(c(O)3)c(=O)c(c(O)2)c(cc(O)c2)1
INCHIKEY=RHMXXJGYXNZAPX-UHFFFAOYSA-N
INCHI=1S/C15H10O5/c1-6-2-8-12(10(17)3-6)15(20)13-9(14(8)19)4-7(16)5-11(13)18/h2-5,16-18H,1H3
MSLEVEL=2
SOURCE_INSTRUMENT=ESI-LC-ESI-QTOF
FILENAME=Massbank_ESI_positive_8_1_2014_peaks.mgf
SEQ=*..*
IONMODE=Positive
ORGANISM=MASSBANK
NAME=Massbank:FIO00058 Emodin [M+H]+
PI=Putative Massbank Match
DATACOLLECTOR=Massbank
PUBMED=N/A
SUBMITUSER=mwang87
TAGS=
SPECTRUMID=CCMSLIB00000213690
SCANS=6423
229.0496 489.0 
271.0603 40658.0 
272.0637 5670.0 
273.0659 769.0 
END IONS

