BEGIN IONS
PEPMASS=428.148
CHARGE=1+
COMPOUNDNAME=Roquefortine C
LIBRARYQUALITY=3
SMILES=N/A
INCHIKEY=SPWSUFUPTSJWNG-LIMLNZRCSA-N
INCHI=InChI=1S/C22H23N5O2/c1-4-21(2,3)22-10-17-18(28)25-16(9-13-11-23-12-24-13)19(29)27(17)20(22)26-15-8-6-5-7-14(15)22/h4-9,11-12,17,20,26H,1,10H2,2-3H3,(H,23,24)(H,25,28)/b16-9-/t17-,20-,22+/m0/s1
MSLEVEL=2
SOURCE_INSTRUMENT=N/A-ESI-QFT
FILENAME=library_mgf.mgf
SEQ=*..*
IONMODE=positive
ORGANISM=MONA
NAME=Roquefortine C [M+K]+
PI=MoNA
DATACOLLECTOR=MoNA:VF-NPL-QEHF016410
PUBMED=N/A
SUBMITUSER=mwang87
TAGS=
SPECTRUMID=CCMSLIB00004707473
SCANS=16410
50.52552 0.078662 
51.023384 0.093849 
51.200142 0.076268 
51.270855 0.063754 
51.344479 0.083518 
51.626694 0.072451 
51.901081 0.077973 
51.940338 18.795309 
51.969036 0.067029 
51.990494 0.074788 
52.018635 0.091134 
52.398422 0.087287 
52.940498 1.593225 
53.002579 2.208743 
53.038975 2.60961 
53.688839 0.084253 
53.714268 0.071409 
53.938759 0.240139 
54.013943 0.074044 
54.034206 3.07559 
55.018211 4.072611 
55.054581 20.64813 
55.489887 0.071765 
55.665043 0.082538 
55.696362 0.090956 
55.934738 3.71692 
55.94257 0.072313 
56.007133 0.072867 
56.049831 1.990947 
56.527153 0.071855 
56.600433 0.073692 
56.796776 0.085391 
56.942627 0.075053 
56.965103 4.762889 
57.021286 0.216468 
57.033855 1.2278 
57.054256 0.068292 
57.070206 18.718098 
57.100384 0.071192 
57.283333 0.081722 
57.494553 0.074679 
57.639236 0.074204 
57.649368 0.080422 
57.708023 0.07508 
57.935131 1.472601 
57.987564 0.177962 
58.029015 0.30872 
58.065468 3.405831 
58.247616 0.066601 
58.440063 0.074 
58.995293 20.033035 
59.049461 7.357354 
59.054554 0.072595 
59.325924 0.069186 
59.930862 0.072658 
59.966747 2.483746 
60.003136 0.86005 
60.044655 0.720098 
60.081078 0.1824 
60.225887 0.078306 
60.949291 0.069518 
61.010925 14.030512 
61.994144 0.071488 
61.998901 0.068086 
62.018749 0.781441 
62.929321 1.605129 
63.006638 0.092892 
63.943817 0.38324 
63.997921 0.410727 
64.013016 0.083819 
64.070274 0.077129 
64.076347 0.095581 
64.927467 0.762769 
65.038803 3.323423 
65.821144 0.074008 
66.034103 0.187125 
67.029381 0.097984 
67.041733 0.369418 
67.054405 19.7017 
68.013245 1.079844 
68.049622 1.796885 
68.057793 0.441669 
68.394241 0.069248 
68.462402 0.081582 
68.541489 0.07472 
68.942863 5.177067 
68.997307 0.090859 
69.033646 3.380117 
69.042961 0.097885 
69.044861 11.480927 
69.070007 31.731543 
69.348915 0.068904 
69.546829 0.078043 
70.028877 0.555186 
70.04837 0.076133 
70.063255 0.132904 
70.065254 18.39414 
70.07338 1.323896 
70.222427 0.078664 
70.957993 2.234812 
71.049271 1.739415 
71.085648 5.883788 
71.929466 0.068774 
72.010437 0.090137 
72.044563 0.118534 
72.052429 0.070814 
72.080894 13.980073 
72.133156 0.0815 
72.937225 4.040166 
73.028519 1.150114 
73.046913 0.459747 
73.064857 0.385268 
73.440422 0.082745 
73.62748 0.072844 
75.044159 2.167359 
77.877922 0.074083 
77.959267 0.339864 
78.034035 0.169402 
78.847801 0.081068 
78.96714 21.589531 
78.969627 0.282219 
79.021278 3.413051 
79.029198 0.739622 
79.054298 6.683095 
79.91275 0.081852 
80.049583 2.80192 
80.057594 0.175522 
80.590813 0.079625 
80.962982 0.449874 
81.033592 2.617898 
81.044815 51.918091 
81.069946 8.249865 
81.17308 0.076894 
82.04821 2.256297 
82.052727 6.718266 
82.065239 0.944193 
83.012817 1.346909 
83.049248 6.324628 
83.060471 4.282241 
83.085556 2.857861 
83.929901 0.383752 
84.044579 0.540072 
84.080864 5.569902 
84.959854 0.072798 
85.028526 2.119147 
85.039742 17.063755 
85.064911 2.991537 
85.101257 1.330085 
85.807045 0.072568 
85.922058 0.084945 
86.060158 0.261073 
86.096512 0.835015 
87.044182 2.754995 
88.075745 0.192001 
88.968529 2.441229 
89.059845 2.202832 
89.630432 0.091059 
89.94001 0.275753 
90.033867 0.110715 
90.947838 6.144076 
91.054344 18.832426 
91.057495 9.785731 
92.049454 1.302008 
92.057732 0.649823 
92.982826 54.93396 
93.025063 0.07879 
93.044876 6.649651 
93.069962 6.611969 
93.982231 1.620903 
93.986115 2.330753 
94.0289 0.542175 
94.040154 0.429829 
94.048805 0.144979 
94.052635 7.102714 
94.065231 1.934946 
94.073364 0.173293 
94.978584 11.543224 
95.015831 0.090548 
95.024048 0.621134 
95.049225 12.18746 
95.056709 0.128467 
95.060501 8.577697 
95.085617 4.848801 
95.371872 0.071611 
96.044479 1.339304 
96.052628 0.311647 
96.05571 3.614546 
96.063652 0.191002 
96.068298 0.294902 
96.080826 0.215434 
96.261642 0.078037 
96.729416 0.078102 
97.028557 0.299802 
97.039764 9.635382 
97.064926 1.075608 
97.076073 0.08002 
97.101334 0.28943 
97.252419 0.08525 
98.023346 0.074041 
98.042999 0.089493 
98.060036 0.188554 
98.096497 2.477909 
98.611679 0.069145 
98.975487 2.009377 
99.044182 2.391806 
99.055397 2.754245 
100.039452 0.303693 
100.112244 0.07659 
101.003517 0.088579 
101.059807 4.202366 
101.670578 0.070043 
101.94075 0.088124 
102.091293 0.095284 
102.159462 0.066021 
102.948296 0.84583 
103.050568 0.106441 
103.054344 5.106469 
103.864624 0.080789 
104.049515 0.833435 
104.271141 0.076393 
105.0336 0.287157 
105.044884 7.215678 
105.070007 6.377346 
106.028877 0.162639 
106.040085 21.877243 
106.048172 0.087568 
106.052521 0.899152 
106.065247 2.470365 
106.978882 0.087091 
106.998497 10.548819 
107.043671 1.042133 
107.047897 14.983713 
107.060471 7.047695 
107.073418 0.078263 
107.085663 1.83808 
107.370506 0.087799 
107.57843 0.073996 
107.950577 2.298316 
108.031929 1.424009 
108.044388 0.104047 
108.055717 60.456921 
108.068062 0.074225 
108.080864 2.571902 
108.958382 1.669618 
109.028542 0.787053 
109.03978 8.383778 
109.052605 0.080352 
109.05912 3.361965 
109.063591 19.819181 
109.076103 3.471984 
109.101418 0.655245 
109.948997 0.314844 
110.043289 0.07051 
110.060188 0.747044 
110.067001 0.496314 
110.071289 3.271653 
110.083794 0.118944 
110.096519 2.276043 
110.643349 0.080782 
111.044189 3.754742 
111.055397 9.682981 
112.058525 0.098595 
112.903633 0.081566 
113.03466 17.058653 
114.037895 0.141594 
114.900307 0.073553 
115.050247 0.085559 
115.054405 4.711081 
116.049538 1.202145 
116.06208 0.094344 
116.96386 1.050062 
116.985962 4.100434 
117.045082 0.134261 
117.057442 3.545906 
117.069962 2.265957 
117.101768 0.083101 
117.515785 0.068506 
118.040291 0.102525 
118.060944 0.248468 
118.065193 7.307557 
118.309761 0.075476 
118.943184 3.136028 
118.962616 0.10376 
119.023979 0.141522 
119.049057 7.563805 
119.060478 3.024145 
119.068939 0.101055 
119.085632 2.680041 
119.943512 0.089286 
119.951073 2.450775 
119.9617 0.078442 
120.032654 0.079724 
120.044624 4.518623 
120.055794 21.474518 
120.068626 0.099433 
120.08091 21.252544 
120.404488 0.082956 
120.941177 0.362734 
121.028534 0.095946 
121.039764 3.781017 
121.05278 0.078112 
121.059082 1.146733 
121.063927 8.724348 
121.076202 0.869801 
121.084244 1.210666 
121.088928 0.218617 
121.101326 0.381721 
121.200066 0.079448 
122.034981 0.306309 
122.06031 0.347646 
122.067055 0.496776 
122.071404 7.829085 
122.096596 0.09019 
123.043907 0.648938 
123.055405 0.345377 
123.074631 0.088743 
123.07943 3.932299 
123.896408 0.068845 
124.039597 0.089977 
124.050667 2.964722 
124.075912 0.17455 
125.034653 2.552184 
125.059708 0.351859 
125.07119 0.181478 
125.582413 0.078617 
125.960648 0.140064 
126.042542 0.832577 
126.055038 0.072341 
127.032532 0.908606 
127.038857 0.613309 
127.050323 1.219023 
127.927803 0.073653 
128.049667 4.01012 
128.062103 2.33847 
128.963837 7.497234 
128.984131 0.088726 
129.069901 3.600626 
129.270889 0.098824 
129.963943 0.22001 
130.065201 77.45932 
130.962189 0.185114 
130.979538 2.566227 
131.000427 0.150788 
131.04924 0.216004 
131.060471 0.893164 
131.068573 10.157933 
131.073257 2.011934 
131.085587 1.237132 
132.044479 2.088739 
132.055847 4.874139 
132.068588 0.129106 
132.071945 0.103409 
132.080826 4.823781 
132.958481 1.807026 
132.97789 0.573628 
133.039795 6.211491 
133.052063 1.295713 
133.064148 2.615662 
133.070862 0.10117 
133.076065 6.426006 
133.10112 0.539106 
133.715652 0.072359 
134.034988 1.827401 
134.048172 0.105409 
134.060059 1.301574 
134.071381 11.348881 
134.079376 0.315574 
134.096497 0.433117 
134.855194 0.074345 
134.956284 0.753817 
134.974426 0.333124 
134.996475 7.812501 
135.043961 0.416488 
135.055298 2.942077 
135.066696 0.893059 
135.079712 1.522573 
135.091599 0.43028 
136.050674 8.823837 
136.057175 0.08478 
136.075775 13.930995 
136.08699 5.251668 
137.023392 100.0 
137.034714 5.572708 
137.059021 1.571734 
137.071106 0.378388 
137.082535 1.156881 
137.095352 0.279633 
137.797089 0.079046 
138.055267 0.089253 
138.066452 0.097592 
138.09082 0.079968 
138.102829 0.100359 
138.951218 0.322276 
138.984177 0.273708 
139.050339 0.41438 
139.075378 0.176161 
139.424622 0.075901 
140.049545 0.84713 
140.984406 0.65927 
141.044067 0.096544 
141.070251 0.504895 
141.899796 0.078055 
142.052673 0.72087 
142.065292 5.335478 
142.077606 0.130935 
142.460754 0.093454 
142.979095 0.084529 
143.060532 4.840548 
143.073196 15.781985 
143.085785 1.06571 
144.044556 2.849005 
144.05632 0.303495 
144.068466 1.213973 
144.081116 23.369432 
145.039658 0.331735 
145.052185 1.006263 
145.065231 0.961632 
145.076157 9.559242 
145.083908 2.926218 
145.089508 0.261245 
145.101501 0.21211 
145.40094 0.06638 
146.024033 0.769563 
146.035034 1.404609 
146.060089 9.676968 
146.071503 1.043212 
146.079376 0.496948 
146.096573 0.863831 
146.974442 60.697186 
147.043945 0.552678 
147.055359 2.236622 
147.066956 0.65722 
147.080307 0.779758 
147.092087 0.082654 
147.974274 8.970612 
148.050598 7.792328 
148.063202 0.093653 
148.075531 0.711588 
148.087021 0.436422 
148.112289 0.102338 
148.972549 9.887833 
148.978485 0.955616 
148.990005 0.600381 
149.034683 0.992782 
149.046875 0.088992 
149.053223 0.102523 
149.059296 0.962302 
149.08252 0.633879 
149.096283 0.099093 
150.05513 0.649302 
150.066589 2.3426 
150.951111 2.553174 
150.968872 3.835622 
151.038879 0.357285 
152.027847 0.338072 
152.045639 1.050671 
152.070541 0.083997 
152.951599 0.091113 
152.96669 0.879004 
152.997284 0.115989 
153.007202 0.974955 
153.069275 0.079276 
153.958954 0.095707 
154.043365 0.366195 
154.065262 18.438536 
154.076965 0.091784 
154.248062 0.078201 
154.999649 0.087299 
155.06076 6.869381 
155.067749 1.5525 
155.073532 1.840364 
155.085403 0.34288 
156.044449 0.446436 
156.068573 2.171439 
156.08107 6.431879 
157.065094 0.098105 
157.076462 6.485284 
157.083298 0.371719 
157.089249 0.240436 
157.995285 0.103142 
158.060074 3.778166 
158.072357 0.379149 
158.084244 0.822727 
158.096619 1.011815 
159.055618 0.822997 
159.067795 0.439431 
159.080353 0.893507 
159.091843 4.679602 
159.098389 0.083889 
159.116943 0.103979 
159.442368 0.069008 
160.050552 1.539319 
160.075806 4.928852 
160.087326 0.468914 
160.112274 0.871477 
160.977249 6.24337 
160.989914 0.603118 
161.046814 1.312321 
161.059555 0.951551 
161.071121 1.103274 
161.082733 0.255584 
161.096146 0.115242 
162.029831 7.011296 
162.055023 1.52464 
162.066345 1.491487 
162.073715 0.182924 
162.12767 0.100032 
162.97525 1.184278 
163.050156 1.563569 
163.061462 21.316296 
163.074081 0.084849 
163.087036 0.068987 
164.034149 0.102109 
164.045517 1.506428 
164.064529 0.161331 
164.069794 0.878177 
165.054581 0.406622 
165.070496 0.500635 
165.077225 6.965528 
166.065552 0.113909 
166.982361 0.429993 
167.05513 0.487136 
167.061279 0.855327 
167.072937 2.433266 
167.085602 0.163798 
168.068298 3.698199 
168.080948 8.052471 
168.101501 0.086867 
168.961655 1.086528 
168.969437 0.204378 
169.039719 2.101687 
169.05275 0.658598 
169.076172 35.080692 
169.08876 1.189011 
169.977493 0.459337 
170.060287 7.800483 
170.071915 0.936987 
170.079025 5.402837 
170.096497 3.861173 
170.962021 0.068203 
171.055374 15.12862 
171.063187 0.487876 
171.080383 0.083891 
171.091705 15.169794 
172.051025 0.086636 
172.058701 1.686946 
172.075882 0.657299 
172.087708 0.172541 
172.095154 2.02436 
172.112427 0.649133 
172.977081 0.190284 
173.071121 1.631486 
173.083878 0.09506 
173.09697 0.10613 
174.029877 1.654496 
174.055008 1.928603 
174.06694 0.344959 
174.091553 0.515509 
174.975357 0.207786 
175.038147 0.91557 
175.061737 1.786664 
175.075668 0.169356 
176.045654 3.709058 
176.07016 0.576239 
176.107605 0.086502 
177.042084 0.094999 
177.054214 0.40551 
177.067108 0.377562 
177.077255 6.870948 
178.048737 1.000438 
178.061249 1.783798 
178.080322 0.08126 
178.964432 4.085783 
179.00116 0.0874 
179.059921 1.517364 
179.084808 0.099353 
180.064102 0.087864 
180.080963 3.192297 
180.888229 0.929309 
180.962875 0.078783 
181.066742 0.123969 
181.076218 6.776855 
181.088791 2.812491 
182.024017 0.318686 
182.060196 1.203421 
182.071732 0.31979 
182.08374 0.94082 
182.096649 4.308112 
183.055405 1.842459 
183.067978 0.446247 
183.080597 0.169781 
183.091904 2.618095 
183.104568 1.490148 
184.063293 2.096284 
184.076294 0.779575 
184.086639 0.598168 
184.112411 0.499466 
184.98967 0.096986 
185.034943 0.081739 
185.059464 0.171523 
185.061249 0.183873 
185.071228 10.726611 
185.949417 0.077202 
186.055313 0.885905 
186.066025 0.834192 
186.0746 0.256135 
186.091812 0.096278 
186.980209 5.464877 
187.050461 0.87254 
187.061096 0.096328 
187.075668 0.110883 
187.086685 0.598313 
187.988159 12.305076 
188.045441 0.579698 
188.070892 0.473165 
188.081314 0.120176 
188.107132 5.999868 
188.978287 3.848516 
188.993362 0.096452 
189.053772 0.099201 
189.065872 0.12482 
189.07724 1.189717 
189.986191 4.549006 
189.995163 1.156919 
190.06131 0.105468 
190.873245 0.117407 
191.056412 4.913417 
191.070663 0.106763 
191.081787 0.087946 
191.092972 1.09976 
191.880875 4.605348 
192.064209 16.922464 
192.962158 0.086741 
192.995178 0.098621 
193.039856 0.461953 
193.072006 21.51371 
193.084747 0.094307 
194.024246 0.105259 
194.071808 2.119294 
194.081451 5.828753 
194.096542 1.853284 
195.055603 1.879938 
195.078918 0.140774 
195.091721 0.999572 
195.104065 0.229553 
196.064758 0.097385 
196.076248 0.266851 
196.086945 2.140098 
196.112045 2.033094 
197.061478 0.084257 
197.071136 7.994291 
197.080719 0.418836 
197.107346 0.45228 
198.065811 0.385438 
198.075562 0.610162 
198.091446 0.824855 
198.128021 4.649323 
198.137299 0.104456 
199.050369 1.493445 
199.075485 0.502992 
199.086884 4.121674 
199.097855 0.206136 
199.131607 0.356245 
200.058289 1.66322 
200.071152 0.100175 
200.091034 0.09873 
200.107071 0.525473 
201.066086 1.227866 
201.100998 0.08313 
201.186218 0.08448 
202.086121 0.103744 
203.056625 1.04734 
203.071518 0.087827 
203.144379 0.10219 
205.062439 0.180868 
205.072174 8.760472 
205.98996 0.092803 
206.071289 7.279018 
206.081055 1.175716 
206.868256 0.10312 
207.054733 3.116961 
207.078461 2.868199 
207.091141 0.350584 
207.876068 0.638198 
208.005798 1.174778 
208.062683 0.313082 
208.086868 4.500573 
208.097427 1.991235 
208.112152 0.590233 
208.883789 7.900018 
208.990875 0.106369 
209.060684 0.098304 
209.070862 2.915915 
209.081787 0.314821 
209.094147 0.199497 
209.89183 11.001973 
210.066437 0.854021 
210.091492 0.195606 
210.102997 0.158573 
211.005005 0.19515 
211.052002 0.102826 
211.074936 0.24931 
211.086502 0.768424 
211.890289 0.308005 
212.081802 0.774449 
212.106949 0.147141 
213.066071 5.811672 
213.102173 0.181606 
214.060989 0.116495 
214.12291 1.077649 
215.045654 0.096559 
215.070145 0.08156 
215.082016 0.238516 
215.974808 0.129236 
218.071426 2.702764 
218.082016 0.133583 
218.868698 0.08457 
219.067627 0.098245 
219.078949 4.072793 
219.090057 0.526527 
219.174072 0.093927 
219.609161 0.470288 
219.622147 0.520265 
219.876389 0.479539 
220.087173 13.406002 
220.903564 2.612123 
221.071091 3.446424 
221.081985 1.742426 
221.092377 1.752493 
221.107071 0.130167 
222.066391 1.132526 
222.077438 0.221715 
222.091125 0.083397 
222.898926 6.578034 
223.072845 0.086916 
223.086075 0.45611 
223.097885 0.25218 
224.001297 0.101305 
224.070633 0.129099 
224.08197 2.278255 
224.878723 2.235741 
225.066086 0.405953 
225.077072 0.190949 
225.090225 0.08488 
225.101532 0.211183 
225.886642 2.920742 
226.061523 0.199862 
226.097992 0.092584 
226.894531 3.005635 
227.08255 0.115048 
229.8965 1.003105 
230.071823 0.340731 
231.078751 0.649478 
231.896439 0.12066 
232.074646 0.62457 
232.087082 1.619088 
232.883865 1.645603 
233.082184 3.322176 
233.094543 0.658746 
233.107956 0.095472 
233.891693 17.827959 
233.985352 0.519022 
234.066498 4.300303 
234.089401 1.80884 
234.102646 1.425368 
234.899628 3.206784 
235.072754 1.179755 
235.085968 0.088628 
235.098099 4.292229 
235.109787 0.100628 
235.890015 1.243381 
236.081848 2.989464 
236.102798 0.202609 
236.898743 0.239411 
237.07692 0.092769 
237.088776 0.203728 
237.991287 0.090624 
238.061081 0.1133 
238.098114 0.132027 
238.123108 0.074772 
238.914062 5.697308 
240.076614 0.479659 
240.909454 13.821009 
242.909882 1.220479 
244.905991 0.977324 
245.082474 6.71159 
245.909409 0.101373 
246.066345 0.827677 
246.089371 6.589809 
246.102509 0.118119 
246.909714 0.071364 
247.00174 0.080702 
247.054688 0.08595 
247.073212 0.537109 
247.098129 9.454033 
247.906586 1.999572 
248.021576 0.312175 
248.081497 2.955211 
248.10318 2.464831 
248.878799 1.121777 
248.89975 0.088833 
249.076538 0.571633 
249.088776 0.270457 
249.113358 0.106107 
250.084778 0.335344 
250.894257 11.360685 
251.903183 1.161574 
252.076279 0.517257 
252.892685 0.199817 
252.985077 0.085739 
253.902634 0.815662 
253.91748 0.572751 
258.089874 0.108131 
259.098267 6.449771 
260.069153 3.751822 
260.103088 0.897545 
261.07724 15.430107 
261.113434 0.221425 
261.98938 0.1241 
262.081726 8.954112 
263.092743 2.258771 
264.097961 0.286034 
266.031708 0.0852 
266.080933 0.095722 
266.889221 0.824617 
267.041077 0.096954 
268.904602 1.653529 
273.077271 3.20508 
274.082336 3.328481 
274.10907 0.12751 
274.894196 0.188399 
275.092682 4.31142 
275.81076 0.110008 
275.902374 9.025069 
276.088593 0.745822 
276.904053 0.247402 
277.07077 0.16344 
277.093933 0.421616 
277.901672 1.205547 
278.079895 0.398481 
278.103424 0.601052 
279.005737 0.08318 
279.087128 0.164106 
279.897522 0.202734 
280.07074 0.113154 
282.920197 0.119688 
283.893646 0.078241 
284.969086 0.072982 
285.114563 0.104007 
285.943512 0.073499 
287.092926 2.787334 
288.089325 0.105886 
290.103455 0.813372 
290.625885 0.088944 
291.086731 0.095452 
291.107117 0.398475 
291.805756 0.25643 
292.092743 0.08705 
292.812378 0.190571 
294.074738 0.085459 
295.837677 0.085114 
295.911865 0.108631 
297.816528 0.107624 
301.072144 2.604613 
302.075775 1.973017 
302.818756 0.420353 
304.082489 0.275549 
309.816803 3.917115 
310.822113 0.092921 
311.294708 0.10295 
312.83902 0.312104 
318.097839 0.117351 
318.52652 0.085579 
320.105438 0.091491 
322.470398 0.085128 
327.827667 0.655646 
328.834595 0.125802 
333.182465 0.070281 
333.814453 0.083769 
337.848022 0.130391 
339.514832 0.06946 
344.829437 0.395781 
350.897614 0.068474 
354.03006 0.083403 
355.282806 0.074025 
366.448059 0.065464 
367.625641 0.092724 
371.174438 0.081818 
379.457825 0.080063 
397.025635 0.117294 
401.455963 0.08914 
404.383301 0.079742 
415.859924 0.081576 
423.727631 0.089641 
424.564026 0.080078 
426.916199 0.079493 
426.996918 0.081011 
444.254944 0.089065 
444.864777 0.079294 
447.346558 1.470407 
447.936768 0.080123 
448.120575 0.079744 
453.884888 0.07645 
END IONS

