BEGIN IONS
PEPMASS=193.13
CHARGE=1+
COMPOUNDNAME=Citrulline
LIBRARYQUALITY=3
SMILES=N/A
INCHIKEY=RHGKLRLOHDJJDR-BYPYZUCNSA-N
INCHI=InChI=1S/C6H13N3O3/c7-4(5(10)11)2-1-3-9-6(8)12/h4H,1-3,7H2,(H,10,11)(H3,8,9,12)/t4-/m0/s1
MSLEVEL=2
SOURCE_INSTRUMENT=N/A-ESI-QFT
FILENAME=library_mgf.mgf
SEQ=*..*
IONMODE=positive
ORGANISM=MONA
NAME=Citrulline [M+NH4]+
PI=MoNA
DATACOLLECTOR=MoNA:VF-NPL-QEHF026478
PUBMED=N/A
SUBMITUSER=mwang87
TAGS=
SPECTRUMID=CCMSLIB00004718039
SCANS=26478
50.13176 0.025961 
50.449406 0.031952 
50.718792 0.026868 
51.940315 0.318352 
52.301029 0.014474 
52.43718 0.042047 
52.477142 0.027882 
52.596077 0.014394 
53.086498 0.018821 
53.306667 0.021667 
53.412598 0.02486 
53.597702 0.012136 
53.970856 0.022599 
54.341656 0.029235 
54.918159 0.017391 
54.937813 0.016965 
55.197781 0.012808 
55.934685 0.050417 
56.028778 0.029993 
56.049522 0.019033 
56.521713 0.016626 
56.965134 0.043074 
57.926899 0.027988 
57.935097 45.733192 
58.044479 0.028644 
59.471081 0.02044 
60.88715 0.012548 
61.010902 20.313473 
62.018665 0.184133 
62.084877 0.023382 
63.026573 0.078376 
63.36319 0.011256 
63.649281 0.017901 
63.849541 0.022163 
64.562302 0.023949 
66.178902 0.020424 
66.29126 0.019668 
67.054359 0.068238 
67.390884 0.009541 
67.428658 0.019056 
67.521118 0.025366 
67.845306 0.023216 
67.935066 0.014997 
68.192978 0.034833 
69.069862 0.015108 
69.961052 0.488715 
70.065201 0.063021 
70.934532 0.036994 
70.957947 2.386795 
71.9403 0.014987 
72.044373 0.040828 
72.934608 0.025219 
72.93718 1.084373 
72.956177 0.026187 
72.958344 6.13024 
73.030434 0.017897 
73.929726 1.98021 
73.937653 0.015164 
74.065582 0.018748 
74.075912 0.025088 
74.93763 2.230534 
75.259911 0.015905 
75.584282 0.027816 
75.945419 24.240498 
76.073174 0.015292 
77.772194 0.020026 
78.081993 0.016783 
78.752571 0.020747 
79.021072 0.024118 
79.05426 0.023199 
79.596558 0.01826 
80.274406 0.015635 
80.537743 0.025827 
80.588074 0.028159 
81.069984 0.031962 
81.65593 0.018604 
81.9105 0.011603 
82.17305 0.030932 
83.264893 0.025303 
83.929993 0.084678 
83.937424 0.032786 
84.922318 0.029164 
85.162666 0.027635 
85.259651 0.012929 
85.363815 0.010371 
85.477722 0.028547 
86.183632 0.029364 
86.318573 0.020111 
86.452713 0.019879 
86.760963 0.026238 
87.945374 0.576016 
88.968513 0.119026 
89.906891 0.017255 
90.561188 0.022017 
90.607498 0.024347 
90.9478 0.182613 
90.96888 0.856173 
91.054283 0.543488 
91.354408 0.031335 
91.940346 0.219328 
92.948082 0.244458 
93.069992 0.075899 
93.186005 0.016046 
93.707466 0.027629 
93.955994 9.696779 
95.085526 0.039727 
95.763855 0.016752 
96.031525 0.0277 
97.193489 0.018174 
99.945473 0.06661 
100.075798 0.017187 
100.466759 0.02259 
101.008438 1.960539 
101.011894 0.026369 
101.485542 0.022635 
101.89843 0.013494 
101.961601 0.019624 
102.009079 0.048578 
102.911263 0.104675 
102.914764 6.846164 
103.213287 0.010736 
103.922523 0.156414 
103.951492 0.393935 
103.976814 0.212006 
104.258896 0.025605 
104.862213 0.027494 
104.930435 6.661412 
105.917122 0.013034 
105.955971 1.971615 
106.429199 0.023143 
106.525436 0.0181 
106.831039 0.011552 
107.085526 0.021387 
107.971367 0.049176 
108.979553 0.017995 
109.064735 0.316584 
109.270309 0.027765 
109.523956 0.035021 
109.751335 0.028266 
112.279823 0.028062 
112.517311 0.019291 
112.992516 0.03177 
113.423073 0.01955 
113.950577 0.028166 
114.013466 0.024269 
115.754906 0.026202 
116.948296 0.051248 
117.144737 0.023289 
117.312431 0.024865 
117.646713 0.025332 
117.86541 0.025933 
117.955933 1.614564 
118.314827 0.023103 
118.924858 0.056622 
119.001259 0.344313 
119.019035 3.518129 
119.049278 2.848637 
119.06044 0.156532 
119.917473 0.53475 
120.019783 0.196846 
120.052544 0.019587 
120.376244 0.024194 
120.925377 1.963661 
120.940697 0.056546 
121.016563 0.034824 
121.933159 0.259378 
122.169479 0.016704 
122.94101 19.098049 
123.912422 0.787013 
123.948853 1.180774 
124.828712 0.017433 
128.970566 0.021133 
130.921143 0.01551 
131.541336 0.016995 
131.961395 1.163678 
132.936569 0.860605 
132.958344 2.256851 
133.948395 0.129393 
134.066681 0.035416 
134.940811 0.085493 
134.958725 15.816802 
135.948883 1.836641 
135.966675 4.220586 
136.956696 0.468644 
137.011932 1.850231 
137.029312 0.165906 
137.928101 26.231396 
138.721542 0.011359 
138.935944 8.412423 
139.009521 0.020976 
140.951584 0.382699 
144.819443 0.02176 
145.758636 0.018836 
145.988388 0.353234 
147.677322 0.01287 
147.923676 0.03131 
148.427216 0.023816 
148.971954 0.593878 
149.961136 0.015882 
149.972137 0.368409 
150.505402 0.032489 
150.951019 0.011349 
150.968719 0.806777 
151.943863 0.137652 
151.959183 0.017352 
151.998825 0.333514 
152.951614 9.90915 
152.969269 17.085888 
153.959305 100.0 
154.212082 0.016831 
155.022537 0.144614 
155.853683 0.032379 
155.914673 0.024261 
155.963867 0.029366 
156.845947 0.024405 
156.946533 4.769068 
158.343918 0.02053 
161.011734 0.01886 
161.226776 0.028696 
161.243698 0.019642 
163.95549 0.040538 
163.998718 3.508624 
164.999969 0.139544 
165.573853 0.018169 
165.996231 0.070512 
166.783356 0.013031 
166.942078 1.281033 
166.984528 0.016259 
167.93866 0.891198 
167.956345 0.288291 
167.975098 0.705369 
168.983017 0.161337 
169.917953 1.188954 
170.493423 0.037275 
170.962112 1.497436 
170.979843 0.980221 
175.690994 0.013155 
179.022339 0.960541 
179.794754 0.025522 
179.938599 0.056187 
182.00946 0.279157 
183.539017 0.023684 
185.949173 14.746809 
188.830612 0.023959 
192.174988 0.01379 
193.600845 0.048839 
194.153976 1.619976 
194.358994 0.024262 
197.949219 0.149804 
199.964935 0.015424 
202.619537 0.026792 
204.998413 0.026954 
205.050446 0.011018 
207.701614 0.018486 
207.919785 0.029622 
214.745575 0.023516 
END IONS

