BEGIN IONS
PEPMASS=511.098
CHARGE=1+
COMPOUNDNAME=Biotin
LIBRARYQUALITY=3
SMILES=N/A
INCHIKEY=YBJHBAHKTGYVGT-ZKWXMUAHSA-N
INCHI=InChI=1S/C10H16N2O3S/c13-8(14)4-2-1-3-7-9-6(5-16-7)11-10(15)12-9/h6-7,9H,1-5H2,(H,13,14)(H2,11,12,15)/t6-,7-,9-/m0/s1
MSLEVEL=2
SOURCE_INSTRUMENT=N/A-Linear Ion Trap
FILENAME=library_mgf.mgf
SEQ=*..*
IONMODE=positive
ORGANISM=MONA
NAME=Biotin M-H
PI=MoNA
DATACOLLECTOR=MoNA:VF-NPL-LTQ000234
PUBMED=N/A
SUBMITUSER=mwang87
TAGS=
SPECTRUMID=CCMSLIB00004684574
SCANS=195
266.0 1.519691 
389.049988 1.550534 
406.809998 1.069887 
432.079987 100.0 
451.220001 3.729371 
END IONS

