BEGIN IONS
PEPMASS=1277.62
CHARGE=1+
COMPOUNDNAME=Dactinomycin
LIBRARYQUALITY=3
SMILES=N/A
INCHIKEY=RJURFGZVJUQBHK-UHFFFAOYSA-N
INCHI=InChI=1S/C62H86N12O16/c1-27(2)42-59(84)73-23-17-19-36(73)57(82)69(13)25-38(75)71(15)48(29(5)6)61(86)88-33(11)44(55(80)65-42)67-53(78)35-22-21-31(9)51-46(35)64-47-40(41(63)50(77)32(10)52(47)90-51)54(79)68-45-34(12)89-62(87)49(30(7)8)72(16)39(76)26-70(14)58(83)37-20-18-24-74(37)60(85)43(28(3)4)66-56(45)81/h21-22,27-30,33-34,36-37,42-45,48-49H,17-20,23-26,63H2,1-16H3,(H,65,80)(H,66,81)(H,67,78)(H,68,79)
MSLEVEL=2
SOURCE_INSTRUMENT=N/A-ESI-QFT
FILENAME=library_mgf.mgf
SEQ=*..*
IONMODE=positive
ORGANISM=MONA
NAME=Dactinomycin [M+Na]+
PI=MoNA
DATACOLLECTOR=MoNA:VF-NPL-QEHF000890
PUBMED=N/A
SUBMITUSER=mwang87
TAGS=
SPECTRUMID=CCMSLIB00004691953
SCANS=890
90.621773 0.057468 
90.699829 0.064975 
90.90863 0.076959 
92.388428 0.071585 
92.694016 0.068917 
92.735481 0.029214 
93.057884 0.074402 
95.098724 0.073043 
95.603325 0.103145 
96.375252 0.119239 
96.818924 0.106595 
97.874573 0.042683 
98.096855 0.737241 
99.01664 0.046696 
99.587242 0.094855 
100.039673 5.967296 
101.088608 0.110811 
102.428902 0.038535 
103.124329 0.062772 
103.45829 0.084774 
103.895653 0.03494 
104.767624 0.063705 
105.906998 0.057155 
106.8563 0.058908 
108.470001 0.060317 
110.073143 0.060533 
110.096764 0.029096 
111.495575 0.02475 
111.513466 0.074465 
111.574608 0.09655 
111.903877 0.044859 
112.037125 1.212519 
112.112404 0.076649 
112.538902 0.089734 
114.091614 2.593104 
119.638634 0.054437 
120.462158 0.060738 
121.675461 0.137256 
122.245735 0.037122 
123.951561 0.101111 
124.11219 8.490002 
124.456978 0.02874 
124.79599 0.068775 
124.957809 0.117799 
125.1073 0.069058 
125.115685 0.098307 
125.532722 0.098722 
125.976234 0.113075 
126.09166 0.075081 
126.936104 0.059982 
127.716873 0.052486 
127.837761 0.102106 
129.714752 0.104622 
130.82579 0.073488 
131.94165 0.023337 
132.101837 9.486884 
133.105301 0.116193 
133.484634 0.027299 
133.922379 0.023984 
134.049744 0.050597 
134.245041 0.101415 
134.275879 0.09669 
136.073196 0.056784 
136.687805 0.101365 
137.995483 0.11822 
138.05249 7.18958 
138.437027 0.107308 
138.442993 0.107686 
139.086639 0.091172 
140.067947 0.239673 
140.237305 0.069749 
140.737473 0.059114 
141.15329 0.115029 
142.086304 1.0853 
142.122742 0.032119 
143.48468 0.072314 
144.000259 0.095897 
144.096298 0.106099 
146.222839 0.029045 
149.210129 0.099349 
149.237244 0.027283 
150.535751 0.033068 
151.083969 0.231092 
152.107208 0.293886 
152.695938 0.056976 
153.10228 0.100539 
154.086014 0.446879 
157.133591 0.119943 
157.175354 0.121898 
159.506042 0.043978 
160.246841 0.12554 
163.084091 1.724874 
163.180954 0.038409 
163.691559 0.115222 
165.100342 0.04811 
166.047638 0.036562 
166.08374 1.312981 
166.651321 0.048679 
167.055573 0.252017 
167.117889 0.036781 
167.478378 0.131543 
169.097214 0.487821 
169.133331 0.240712 
169.688568 0.038186 
170.184326 0.045704 
172.103271 0.025735 
174.103653 0.066971 
174.920883 0.088221 
175.365341 0.065631 
177.09993 2.813077 
177.661697 0.059638 
177.849777 0.065848 
179.017166 0.040555 
179.117081 0.028386 
179.157379 0.055199 
180.10202 0.04194 
181.097122 0.040464 
183.03035 0.034672 
185.128662 0.968197 
185.192291 0.094573 
185.291122 0.105083 
186.960495 0.040276 
187.108002 0.379933 
188.800354 0.041256 
189.461044 0.038966 
190.051956 0.055808 
191.079208 0.646526 
193.131592 0.062519 
195.112808 0.037665 
196.731827 0.03471 
197.128616 0.302947 
199.107498 0.075385 
199.205643 0.128187 
201.099976 0.357642 
202.723526 0.040396 
203.13887 10.486301 
204.142609 0.308654 
205.095322 0.05752 
205.719467 0.116962 
207.07402 0.039686 
209.089478 12.06901 
210.092926 0.146444 
210.307907 0.039508 
214.420685 0.071286 
217.130356 0.076962 
217.143829 0.038871 
219.110291 1.671451 
219.14917 0.07695 
222.121277 1.652541 
222.223709 0.052312 
223.105179 9.712303 
223.209564 0.138617 
224.108383 0.106622 
224.588669 0.026816 
225.043396 0.091032 
228.680679 0.040618 
233.902481 0.068055 
235.142975 0.035162 
237.120743 6.893372 
238.124573 0.101726 
243.640137 0.06902 
245.126038 0.3009 
247.105347 0.427704 
248.369568 0.043398 
249.084717 0.033149 
250.152466 1.096585 
254.469849 0.027796 
262.152527 0.056344 
263.099884 13.288735 
263.136261 11.220391 
264.103027 0.096913 
264.139343 0.088474 
264.168854 0.16333 
267.076691 0.114068 
272.136566 0.338965 
272.221649 0.077368 
273.408325 0.069822 
274.152222 0.961937 
276.131897 0.482157 
276.167877 6.743395 
277.115601 5.116446 
277.171631 0.158458 
278.183563 1.713322 
280.595367 0.127084 
282.18158 0.02761 
283.845703 0.026845 
288.168274 0.612741 
289.057098 0.209752 
290.147186 4.518478 
290.183319 0.491838 
291.131134 0.496959 
295.07132 0.034515 
299.0625 0.050877 
300.191589 0.411599 
300.698151 0.061707 
301.205414 0.045191 
302.089264 0.496872 
302.147369 0.790443 
303.559937 0.046781 
304.086975 0.259552 
304.109924 0.287884 
304.162781 0.924915 
305.146729 0.05511 
308.15741 26.828148 
309.160919 2.010042 
312.191803 0.471354 
316.126343 1.926573 
316.162811 3.967471 
316.309113 0.075093 
318.0849 0.120962 
318.14209 2.175092 
319.148254 0.077429 
319.336578 0.122734 
319.544861 0.027236 
320.157532 83.469566 
321.160919 8.509939 
321.188934 1.03943 
322.173523 0.092057 
328.069366 0.028308 
328.125702 0.042257 
329.075745 0.126566 
332.175415 0.120592 
333.047302 0.177191 
333.189453 0.753908 
334.083435 0.144249 
334.13739 17.098604 
334.17276 32.443157 
334.193634 0.467833 
335.139526 0.84612 
335.176544 3.17235 
336.097687 0.031381 
337.061249 0.069229 
340.179321 0.127775 
343.117065 0.079343 
344.100159 1.339529 
345.189606 0.167894 
346.079407 0.268886 
346.115906 1.633095 
346.137024 10.271541 
346.210083 0.110719 
347.142548 0.486124 
347.168335 2.321187 
347.204681 7.35341 
348.097382 0.288917 
348.188782 0.069104 
350.112823 0.998487 
351.058136 0.453949 
354.109253 0.164814 
357.108734 0.187304 
357.925659 0.029087 
359.242188 0.032973 
362.07486 0.159125 
362.111237 0.579532 
366.108154 0.573889 
367.115417 0.030292 
368.380615 0.066272 
370.079376 1.502168 
371.087006 0.562072 
371.111115 3.950515 
372.094147 8.010478 
373.099823 0.870546 
373.184082 2.976233 
375.236328 1.969145 
376.183746 0.084197 
377.25177 0.529212 
378.238861 0.064789 
381.094391 0.249726 
382.122772 0.063025 
383.111237 0.085926 
383.229156 0.070797 
385.12442 0.056552 
385.222046 0.168997 
386.217529 0.107351 
387.104401 0.136613 
387.144775 0.135334 
388.089996 3.384073 
388.115601 0.344021 
389.122131 0.788932 
390.10553 3.467732 
390.198029 0.528331 
390.495789 0.113443 
391.19458 100.0 
392.197723 13.665972 
393.199188 0.031013 
394.102966 2.983188 
395.077332 0.063529 
395.106567 0.534912 
397.0914 0.171651 
398.074249 0.554467 
399.106842 0.463251 
400.114471 0.039224 
401.121613 1.065272 
401.215302 2.424542 
401.252014 2.906183 
403.231384 4.323571 
403.266693 2.891689 
403.965881 0.127456 
404.22583 6.639596 
405.231049 0.030276 
405.331146 0.044952 
408.071167 0.067023 
409.126434 0.261712 
410.124298 0.061135 
411.106171 0.756571 
412.087708 0.155613 
415.100983 3.161586 
415.132233 0.068741 
416.084015 23.398409 
417.088074 3.97393 
417.173676 8.874282 
418.175659 0.264056 
424.13681 0.370756 
425.121765 1.443583 
426.12793 0.039835 
427.102875 1.795194 
427.13681 7.800126 
427.17038 1.193829 
428.143402 3.549466 
429.11792 2.468788 
429.152527 6.105612 
429.210388 0.213078 
429.246277 1.587511 
430.15741 0.244801 
430.252808 0.040562 
431.134338 0.691823 
432.142822 0.047059 
433.111053 0.372324 
433.142426 0.131383 
437.122131 0.122296 
437.786194 0.113423 
440.147125 0.044618 
442.159698 0.191831 
443.134979 1.382835 
443.167938 56.98465 
444.171906 12.02947 
445.11261 0.043898 
445.180267 0.432709 
447.165588 0.042754 
448.111572 0.072994 
452.132355 0.079891 
453.115509 2.028645 
454.121124 0.750237 
454.152161 0.084227 
455.09967 0.129644 
455.131592 7.411175 
455.16684 2.343169 
456.134613 0.301483 
458.272614 0.545274 
459.129059 1.119596 
460.133942 0.05148 
460.288666 3.121379 
466.181976 0.161438 
468.164917 0.317521 
469.112915 1.366705 
469.147064 7.017027 
470.150055 0.619414 
471.126465 1.157962 
471.162018 6.257573 
472.165314 0.807879 
473.106689 0.110444 
473.1427 5.015843 
474.146698 0.162139 
477.674133 0.082766 
479.168427 0.253754 
480.164948 0.354476 
481.111542 2.504473 
482.179535 4.317292 
483.162964 4.272869 
484.162048 0.807929 
484.495483 0.043952 
485.173889 0.032148 
485.76944 0.034172 
486.17392 0.111258 
486.269012 0.241166 
487.157623 22.074114 
488.161224 3.894458 
489.063538 0.088918 
489.173492 9.849383 
490.176453 0.898901 
491.214233 0.043722 
496.158234 0.054125 
496.194763 2.113171 
497.168182 0.094339 
498.173828 9.101859 
499.121765 0.637606 
499.179932 0.838777 
500.190063 0.532982 
501.176025 0.048366 
502.214935 0.047243 
502.261871 0.163633 
504.278351 1.352763 
508.158844 0.073848 
508.195007 1.520468 
509.178467 0.66116 
510.174835 0.988328 
510.21167 0.08986 
511.155212 0.032758 
512.190552 5.647312 
513.193054 0.646581 
515.153259 4.866007 
516.156006 0.204779 
524.18927 8.882203 
524.227478 3.461986 
525.197632 5.292757 
526.17218 2.021752 
526.20575 40.908497 
527.1698 0.18647 
527.210449 13.929645 
528.184021 4.628349 
528.223511 0.425994 
530.203491 0.741445 
530.257507 0.695377 
531.208008 0.107777 
533.165771 0.258444 
536.153015 0.076616 
536.1922 0.07084 
540.182678 1.255615 
540.222046 10.187758 
541.22583 1.515542 
542.199097 3.071067 
542.237671 0.094807 
543.202515 0.181321 
544.180115 2.656377 
545.177856 0.046075 
549.088623 0.116791 
550.204956 0.661395 
550.312805 0.069382 
551.200317 0.38879 
552.184082 14.973163 
553.186523 2.745312 
554.199341 3.922561 
555.198608 0.093794 
556.130676 0.043642 
566.200806 2.084793 
568.217285 10.11441 
569.218262 2.284946 
570.151489 0.03171 
570.194275 7.083371 
571.153748 0.052877 
571.198975 1.747113 
572.210938 11.625877 
573.21405 2.060163 
574.219971 0.088883 
579.233643 1.35739 
580.175964 0.067393 
580.723511 0.118842 
581.21405 0.149343 
581.254883 0.105732 
582.227783 0.684804 
583.458008 0.042685 
584.210449 14.805096 
585.214111 3.540053 
586.226624 45.152966 
587.229126 10.754205 
588.236816 0.109767 
591.019531 0.130157 
593.247009 0.148017 
595.223877 0.955596 
595.268188 0.216452 
596.240845 1.200058 
597.243103 0.811138 
598.188232 7.123789 
599.200439 0.912417 
599.258362 10.249867 
600.260437 1.885873 
605.246094 0.039332 
606.233582 0.073858 
607.225769 0.3527 
607.269226 0.160529 
609.241211 0.648335 
610.248169 0.088368 
611.170898 0.121411 
611.261536 21.38361 
612.206055 11.88367 
612.261169 6.288319 
613.209045 2.42724 
613.269287 0.058641 
614.217957 0.042558 
621.242188 0.731828 
623.259094 18.16651 
624.26355 6.697315 
625.233337 13.347041 
626.232178 4.105142 
627.229004 0.098907 
630.216187 4.516524 
631.219238 0.30341 
633.242554 0.120796 
635.257019 0.086847 
637.238586 0.582117 
639.25354 39.42725 
640.257629 9.447824 
641.228394 10.290091 
642.233948 2.336451 
648.421021 0.125625 
649.238831 0.367628 
650.236145 0.073814 
651.255127 8.570596 
652.241638 4.078783 
652.295898 0.102668 
653.251587 0.394163 
655.247559 4.748443 
656.251709 0.59108 
657.263062 9.658498 
658.267395 1.397138 
659.268005 0.153092 
665.231995 5.55835 
666.230347 0.453453 
667.247681 26.982557 
668.25061 9.298273 
669.264648 44.231533 
670.266907 12.341321 
671.275085 0.367358 
681.300171 0.277271 
682.257629 3.953587 
683.242798 17.258255 
684.245911 5.024979 
685.256653 1.84306 
694.255554 1.237812 
695.242676 54.92984 
696.241455 14.79728 
697.258362 2.511075 
701.250854 0.213846 
706.33252 0.144581 
708.348206 1.053266 
708.973022 0.10963 
709.361572 0.10933 
710.291687 0.03583 
712.268738 2.266469 
713.255066 3.749403 
714.259583 0.271738 
715.269531 0.040541 
722.288574 5.285347 
723.288147 1.293863 
724.34259 6.688024 
725.345154 0.707595 
734.325256 2.746831 
735.323547 0.344498 
738.284058 6.609871 
739.28772 1.79475 
740.300049 5.381065 
741.302734 0.548577 
742.171509 0.079043 
749.288025 1.434997 
750.285767 2.49863 
751.298645 0.28377 
752.338501 8.77311 
753.33783 3.75223 
754.324829 0.140314 
754.42334 0.136808 
765.290527 0.136966 
766.312195 25.613918 
767.316101 7.961484 
768.330688 1.496039 
769.338867 0.06978 
774.166077 0.072117 
778.321716 0.416477 
779.316589 0.451218 
784.290161 1.020784 
793.362244 0.942008 
794.308289 0.811262 
795.305481 0.635374 
796.326111 2.393176 
797.325745 0.193376 
801.443542 0.076764 
812.322449 16.52389 
813.324524 5.115999 
814.328247 0.168701 
821.338013 0.241235 
822.345886 0.041003 
835.368958 0.142487 
837.353455 11.577072 
838.355408 3.952613 
838.687317 0.032982 
839.361206 0.378272 
847.368591 0.09183 
850.381714 0.224736 
863.367615 0.633054 
865.355408 2.545203 
866.358643 0.270916 
879.361694 0.104585 
880.808838 0.106142 
883.358521 5.507602 
884.361389 1.816416 
891.347473 0.072938 
892.355591 0.161627 
896.887573 0.070608 
909.375244 26.569714 
910.378296 11.02604 
911.378845 0.707561 
933.597229 0.084908 
934.408997 0.070746 
936.394958 0.785172 
973.082764 0.079165 
980.411682 12.951653 
981.414978 5.542534 
981.519653 0.16481 
982.407593 0.029894 
993.437256 0.283027 
994.438721 0.060148 
1051.447021 0.350296 
1151.326904 0.095261 
1180.460327 0.064516 
1225.960938 0.129051 
END IONS

