BEGIN IONS
PEPMASS=337.238
CHARGE=1+
COMPOUNDNAME=Aphidicolin
LIBRARYQUALITY=3
SMILES=N/A
INCHIKEY=NOFOAYPPHIUXJR-APNQCZIXSA-N
INCHI=InChI=1S/C20H34O4/c1-17(11-21)15-4-3-13-9-14-10-19(13,7-8-20(14,24)12-22)18(15,2)6-5-16(17)23/h13-16,21-24H,3-12H2,1-2H3/t13-,14+,15-,16+,17-,18-,19-,20-/m0/s1
MSLEVEL=2
SOURCE_INSTRUMENT=N/A-ESI-QFT
FILENAME=library_mgf.mgf
SEQ=*..*
IONMODE=negative
ORGANISM=MONA
NAME=Aphidicolin [M-H]-
PI=MoNA
DATACOLLECTOR=MoNA:VF-NPL-QEHF004568
PUBMED=N/A
SUBMITUSER=mwang87
TAGS=
SPECTRUMID=CCMSLIB00004695631
SCANS=4568
50.111847 0.058651 
50.513996 0.043328 
50.83007 0.062081 
52.797138 0.05107 
53.561073 0.053189 
55.017555 0.066419 
57.033226 1.858586 
57.114334 0.056261 
58.00465 4.787894 
58.270306 0.059177 
58.486626 0.0592 
59.012482 6.259052 
61.268375 0.052412 
61.566143 0.054308 
61.608757 0.05411 
61.987019 2.482656 
62.55727 0.063642 
63.540672 0.061341 
63.570271 0.069522 
63.870735 0.06114 
63.961063 0.504134 
64.951019 0.050998 
64.960419 0.044739 
65.169746 0.047642 
65.711189 0.064474 
65.994789 0.078139 
66.225235 0.060738 
66.234802 0.054192 
67.083755 0.068146 
67.400291 0.051975 
67.431847 0.053783 
68.104248 0.041795 
68.575363 0.068837 
69.033218 0.280251 
69.365524 0.057212 
70.028496 0.078065 
70.522224 0.059769 
70.649788 0.039641 
70.712769 0.051203 
71.012474 2.208106 
71.048874 0.047827 
71.690643 0.048959 
72.044174 0.072717 
72.743355 0.058719 
72.747368 0.042211 
72.991531 0.073139 
73.028084 0.733567 
74.023407 0.125731 
74.261658 0.053048 
74.303238 0.053491 
74.578751 0.043144 
74.696815 0.043129 
75.007347 0.550643 
78.149132 0.069307 
78.984596 1.716499 
79.956017 3.496518 
80.96386 2.418613 
81.033211 0.08876 
81.137535 0.048311 
81.235641 0.064454 
83.017982 0.068462 
83.048927 0.535633 
83.066795 0.037933 
83.791725 0.033872 
84.551331 0.058491 
85.028198 0.198876 
85.793526 0.079216 
86.023506 0.242323 
86.652802 0.05192 
87.043823 0.2512 
87.853561 0.056246 
88.039093 10.206439 
89.023125 0.125608 
89.341255 0.053766 
89.678947 0.066616 
89.800079 0.038807 
92.34816 0.044638 
92.747154 0.055997 
92.99308 0.053159 
93.127159 0.05775 
93.492928 0.041706 
93.508362 0.076266 
94.144775 0.056423 
94.979538 8.772887 
95.048882 0.235396 
95.951477 0.040899 
96.679077 0.069072 
96.941277 0.217561 
96.958824 85.6866 
96.975426 0.273346 
96.977798 0.063401 
97.064667 0.242022 
97.958282 0.181547 
98.023468 1.782821 
98.95462 3.042402 
98.963219 0.164948 
99.043724 0.129782 
99.637711 0.042593 
100.039024 0.13113 
100.529495 0.035465 
100.949661 0.038658 
104.880569 0.052178 
107.085632 0.039947 
108.630936 0.056426 
108.939888 0.077978 
108.977814 0.068975 
109.064735 0.561084 
110.02359 0.145055 
110.956718 0.230861 
110.974564 0.460665 
111.043686 0.15506 
111.069534 0.061774 
111.080147 0.03954 
112.039177 0.242212 
112.454277 0.043279 
112.539871 0.041077 
112.85006 0.072563 
113.060272 0.070282 
113.476357 0.070346 
114.018517 8.257576 
116.030228 0.057476 
119.085411 5.11068 
121.064339 0.054478 
122.974541 0.40998 
123.044334 0.052308 
123.080315 0.246624 
124.07486 0.068001 
125.059601 0.072048 
125.068283 0.047912 
125.095985 0.161377 
127.026344 21.185074 
128.034271 4.188318 
128.119278 0.051098 
128.149628 0.072387 
129.383545 0.07612 
130.816177 0.047385 
133.372025 0.058692 
134.946289 0.04786 
135.223602 0.060825 
137.0961 3.986887 
138.408127 0.069084 
140.32399 0.041218 
140.342667 0.072396 
140.646957 0.075743 
140.653793 0.072087 
141.790207 0.045502 
144.435303 0.069482 
144.75856 0.057165 
145.963806 0.041636 
147.08075 0.063435 
149.096115 1.714074 
149.452072 0.048697 
153.121765 0.065306 
154.976456 0.054913 
155.347641 0.064975 
158.290222 0.040088 
161.096176 0.249194 
162.838165 0.081581 
163.111938 1.092781 
165.127472 2.143827 
165.509109 0.047907 
167.106842 0.294098 
167.143112 0.064381 
168.102386 0.072387 
168.272064 0.066075 
170.003448 0.501955 
171.661209 0.042937 
175.111938 2.316114 
176.114838 0.047262 
176.929153 0.051489 
177.127518 0.20891 
178.188217 0.063305 
179.106888 0.149996 
183.011353 20.102585 
184.019287 3.242085 
184.357864 0.081688 
185.615707 0.060964 
187.111694 0.247984 
188.159256 0.044575 
190.202576 0.073156 
193.122665 4.62237 
194.126205 0.14281 
195.138367 1.857214 
195.755463 0.069896 
197.027222 4.862674 
198.035034 3.321696 
200.546539 0.071978 
200.80127 0.03529 
202.250824 0.061561 
203.107056 0.128623 
204.014191 0.059121 
205.122894 6.456974 
205.892807 0.093974 
206.126053 0.408487 
207.90123 0.078312 
209.117798 13.472506 
209.764908 0.070654 
210.12114 0.66183 
214.799042 1.406127 
214.822006 0.046188 
216.908997 1.728454 
217.918579 0.073513 
219.175034 0.052015 
221.117706 0.285129 
223.133682 10.796149 
224.136993 1.263456 
226.933594 0.081171 
228.778214 0.054123 
231.138962 0.204157 
232.449753 0.053249 
233.883667 0.044125 
234.458176 0.051802 
239.074509 0.221585 
240.883514 0.103379 
246.846069 0.076177 
249.149384 0.536507 
249.184921 0.044203 
251.200836 0.041864 
253.143845 0.173645 
254.148666 1.590862 
254.23732 0.042137 
254.856293 0.304431 
255.233047 12.903314 
256.236328 2.23939 
257.191498 0.178915 
258.895111 0.046223 
261.718231 0.066863 
267.160583 0.139847 
268.095612 0.163404 
269.43161 0.080187 
272.7883 0.044905 
272.89978 0.062283 
273.222443 0.056536 
275.201691 0.062799 
275.238037 0.073925 
276.160461 0.385794 
279.330841 0.063997 
279.856354 0.163741 
287.201752 2.966631 
288.203888 0.177128 
289.217346 0.480831 
292.15564 4.685523 
292.219299 0.053655 
293.158966 0.339649 
299.202179 0.042015 
300.257721 0.078906 
305.212372 2.435306 
306.216614 0.105708 
315.196625 1.486834 
317.212494 4.460816 
318.2164 0.409237 
319.227875 2.838674 
320.230377 0.110002 
326.05249 0.049245 
330.13736 0.07278 
335.222992 17.078329 
336.226379 11.146395 
337.184235 4.018825 
337.205322 12.509421 
337.238983 9.649072 
337.31073 0.285318 
338.175873 1.329306 
338.208771 1.898226 
338.241669 2.283345 
339.199951 100.0 
339.326569 0.987282 
END IONS

