BEGIN IONS
PEPMASS=405.264
CHARGE=1+
COMPOUNDNAME=MoNA:692558 (1S,3R,7S,8S,8aR)-8-{2-[(2R,4R)-4-hydroxy-6-oxotetrahydro-2H-pyran-2-yl]ethyl}-3,7-dimethyl-1,2,3,7,8,8a-hexahydronaphthalen-1-yl (2S)-2-methylbutanoate
LIBRARYQUALITY=3
SMILES=N/A
INCHIKEY=PCZOHLXUXFIOCF-BXMDZJJMSA-N
INCHI=InChI=1S/C24H36O5/c1-5-15(3)24(27)29-21-11-14(2)10-17-7-6-16(4)20(23(17)21)9-8-19-12-18(25)13-22(26)28-19/h6-7,10,14-16,18-21,23,25H,5,8-9,11-13H2,1-4H3/t14-,15-,16-,18+,19+,20-,21-,23-/m0/s1
MSLEVEL=2
SOURCE_INSTRUMENT=LC-ESI-QFT-LC-ESI-QFT
FILENAME=output_mgf.mgf
SEQ=*..*
IONMODE=
ORGANISM=MONA
NAME=MoNA:692558 (1S,3R,7S,8S,8aR)-8-{2-[(2R,4R)-4-hydroxy-6-oxotetrahydro-2H-pyran-2-yl]ethyl}-3,7-dimethyl-1,2,3,7,8,8a-hexahydronaphthalen-1-yl (2S)-2-methylbutanoate [M+H]+
PI=MoNA
DATACOLLECTOR=MoNA
PUBMED=N/A
SUBMITUSER=mwang87
TAGS=
SPECTRUMID=CCMSLIB00000566324
SCANS=3576
57.0698 0.371915 
65.0385 3.716257 
67.0542 14.674341 
68.9971 2.217165 
69.0335 1.451491 
69.0698 4.227939 
71.0127 2.173082 
71.0492 2.067395 
77.0385 4.363078 
79.0542 47.695517 
81.0698 29.988214 
83.0491 7.976172 
85.0648 1.367801 
91.0542 58.553534 
93.0698 13.223514 
95.0491 14.874487 
95.0854 3.924761 
97.0649 1.754866 
103.0542 4.836758 
105.0447 4.771215 
105.0699 67.417302 
107.049 0.36712 
107.0855 6.008965 
109.0648 3.274476 
115.0541 14.694355 
116.0619 7.676494 
117.0697 20.820642 
119.0854 28.534914 
121.0648 0.496115 
121.101 0.613212 
127.054 1.598293 
128.062 67.956474 
129.0698 44.717025 
130.0777 14.716088 
131.0855 42.101802 
133.0649 0.472322 
133.1011 3.639282 
141.0698 30.996593 
142.0778 41.000098 
143.0856 100.0 
144.0934 17.488785 
145.1012 23.389137 
147.1168 0.57039 
152.0621 2.050898 
153.0698 11.901604 
154.0777 14.155776 
155.0604 5.480949 
155.0855 32.595124 
156.0933 21.047022 
157.1011 18.923719 
158.109 14.729585 
159.1168 8.883062 
165.0697 5.405699 
166.0776 4.605543 
167.0855 10.405279 
168.0933 11.584732 
169.1011 29.10627 
170.1088 3.015825 
171.1167 8.305147 
173.1324 5.212613 
178.0776 3.351198 
179.0852 4.071165 
180.0932 1.589119 
181.1011 11.33244 
182.1091 4.028967 
183.1168 8.988478 
184.1246 1.91277 
185.1323 0.419793 
191.0857 2.134995 
192.0931 3.705505 
193.1011 4.780523 
194.109 0.431234 
195.1169 5.541432 
196.1251 0.57329 
197.1324 3.485936 
199.1481 1.836829 
204.0934 1.325172 
205.1013 1.772854 
206.1092 0.395915 
207.1165 0.764717 
209.1322 0.365587 
210.1404 1.63562 
219.1169 2.16906 
223.1482 0.530472 
225.1636 1.604247 
END IONS

