BEGIN IONS
PEPMASS=455.0
CHARGE=1+
COMPOUNDNAME=MoNA:2481751 Ribostamycin
LIBRARYQUALITY=3
SMILES=N/A
INCHIKEY=NSKGQURZWSPSBC-DLBSIDPUSA-N
INCHI=InChI=1S/C17H34N4O10/c18-2-6-10(24)12(26)8(21)16(28-6)30-14-5(20)1-4(19)9(23)15(14)31-17-13(27)11(25)7(3-22)29-17/h4-17,22-27H,1-3,18-21H2/t4-,5+,6-,7-,8-,9+,10-,11-,12-,13-,14-,15-,16-,17-/m1/s1
MSLEVEL=2
SOURCE_INSTRUMENT=LC-ESI-IT-LC-ESI-IT
FILENAME=output_mgf.mgf
SEQ=*..*
IONMODE=
ORGANISM=MONA
NAME=MoNA:2481751 Ribostamycin [M+H]+
PI=MoNA
DATACOLLECTOR=MoNA
PUBMED=N/A
SUBMITUSER=mwang87
TAGS=
SPECTRUMID=CCMSLIB00000567505
SCANS=4756
146.1 5.899448 
161.0 13.891311 
163.0 100.0 
205.2 10.287707 
239.2 3.574542 
241.2 10.723627 
275.1 11.88608 
293.2 16.797443 
293.2 2.906132 
295.1 82.999128 
295.1 2.906132 
296.2 18.337693 
323.1 28.073235 
323.1 2.906132 
324.4 9.183377 
455.1 10.055217 
456.2 46.498111 
END IONS

