BEGIN IONS
PEPMASS=507.277
CHARGE=1+
COMPOUNDNAME=(2E,4E)-1-[(2R,6S,14S,22S,25R)-25-(3,3-dimethyloxiran-2-yl)-15-methyl-1,3,13,15-tetraazaheptacyclo[18.4.1.0�,?.0?,��.0?,��.0�?,��.0�?,��]pentacosa-7,9,11,16(21),17,19-hexaen-3-yl]hexa-2,4-dien-1-one
LIBRARYQUALITY=3
SMILES=N/A
INCHIKEY=XZFSMUXVAYCHFO-QREHLELFSA-N
INCHI=InChI=1S/C32H36N4O2/c1-5-6-7-15-24(37)35-18-16-31-21-12-8-9-13-22(21)33-28-32(31)17-19-36(29(31)35)26(27-30(2,3)38-27)20-11-10-14-23(25(20)32)34(28)4/h5-15,26-29,33H,16-19H2,1-4H3/b6-5+,15-7+/t26-,27?,28+,29+,31-,32-/m1/s1
MSLEVEL=2
SOURCE_INSTRUMENT=N/A-ESI-QFT
FILENAME=library_mgf.mgf
SEQ=*..*
IONMODE=negative
ORGANISM=MONA
NAME=(2E,4E)-1-[(2R,6S,14S,22S,25R)-25-(3,3-dimethyloxiran-2-yl)-15-methyl-1,3,13,15-tetraazaheptacyclo[18.4.1.0�,?.0?,��.0?,��.0�?,��.0�?,��]pentacosa-7,9,11,16(21),17,19-hexaen-3-yl]hexa-2,4-dien-1-one [M-H]-
PI=MoNA
DATACOLLECTOR=MoNA:VF-NPL-QEHF021745
PUBMED=N/A
SUBMITUSER=mwang87
TAGS=
SPECTRUMID=CCMSLIB00004712808
SCANS=21745
50.186291 0.039187 
50.460922 0.028797 
51.002579 0.039878 
51.390568 0.040803 
51.515896 0.025328 
52.161488 0.02872 
52.543182 0.037308 
52.967621 0.029268 
54.083466 0.028853 
54.333118 0.031054 
54.385178 0.035115 
54.392086 0.03041 
55.013485 0.033932 
55.073505 0.040898 
55.188049 0.032445 
55.667934 0.030119 
57.033108 0.102173 
58.669094 0.032815 
58.81942 0.03553 
59.012379 7.496995 
59.049927 0.039827 
61.020851 0.035579 
61.355232 0.036079 
61.394714 0.037184 
61.88665 0.027484 
61.986889 30.42827 
62.223686 0.029957 
62.241619 0.028825 
62.257259 0.025305 
63.225437 0.033295 
63.282696 0.036517 
63.310966 0.038998 
63.344624 0.025051 
63.961105 0.028794 
64.347862 0.033874 
65.038216 2.059257 
66.144775 0.039955 
67.053886 0.529238 
67.357033 0.026653 
67.735603 0.038896 
68.266541 0.028201 
69.725906 0.027808 
70.285789 0.037208 
70.395744 0.028354 
70.554024 0.02561 
70.567429 0.036549 
71.02356 0.117708 
71.048767 0.426815 
71.379555 0.036358 
71.963913 0.043881 
72.991623 0.032973 
73.634186 0.044939 
75.310951 0.029416 
75.445534 0.048949 
75.487022 0.037921 
76.077705 0.03524 
76.113991 0.033362 
77.390991 0.035084 
77.412117 0.031837 
78.957649 0.032274 
78.9842 0.044974 
79.955917 1.248928 
80.046799 0.033849 
80.048851 0.033832 
80.267525 0.026606 
80.963737 2.169342 
81.458466 0.039036 
82.028259 0.140473 
83.012398 0.044249 
83.048759 0.282891 
83.661331 0.02327 
85.333923 0.040161 
85.866974 0.035601 
87.007263 0.838761 
87.223839 0.037671 
88.417221 0.031031 
88.700867 0.04291 
88.918282 0.037339 
88.956078 0.033572 
89.022964 5.229922 
89.041397 2.574039 
89.855583 0.031742 
90.026512 0.038124 
90.040993 0.025174 
90.044289 0.037144 
90.932083 0.040422 
91.020645 0.149165 
92.049126 2.631893 
92.843826 0.03743 
93.033173 10.765642 
93.863716 0.03211 
93.890518 0.023951 
94.028381 0.460465 
94.036499 0.221576 
94.06472 0.037399 
94.22744 0.04222 
94.319458 0.022894 
94.979385 13.361896 
95.048752 0.21678 
96.958656 1.551733 
96.975113 0.427553 
97.929794 0.052893 
97.952576 0.032166 
97.959663 0.038399 
98.023277 0.836006 
98.937805 0.049154 
99.007172 0.029017 
99.691391 0.034112 
99.9244 4.297331 
100.800369 0.03475 
100.924477 0.186648 
100.93222 4.45942 
101.932251 0.248847 
103.572433 0.023144 
103.91877 1.735838 
104.926674 0.078288 
104.945709 0.030048 
104.991295 0.029349 
105.61853 0.033937 
106.342972 0.0364 
108.043999 0.052133 
108.89872 0.039946 
109.092361 0.024022 
109.380554 0.035033 
109.886459 0.048548 
110.059738 29.120649 
110.97435 0.029229 
111.043709 1.535194 
111.063065 0.901443 
112.015221 0.030479 
112.039192 0.036478 
113.023003 0.049913 
113.924759 0.379519 
114.054695 0.067478 
115.086311 0.567188 
115.919357 14.491405 
115.962288 0.032512 
116.049156 2.086634 
116.070297 1.27712 
116.919586 1.255524 
116.927094 1.967205 
116.971062 0.223559 
117.917633 0.2178 
118.130844 0.041118 
118.537369 0.037413 
118.898125 0.054261 
118.968292 0.099822 
119.051186 0.032844 
119.922295 0.128786 
119.945641 1.113085 
120.044121 0.188223 
121.028122 1.419027 
121.878036 0.031119 
122.059418 0.040785 
122.88855 0.037753 
122.892776 1.284004 
123.031075 0.382255 
125.871872 0.102463 
126.054955 0.033003 
126.879128 0.037887 
127.659027 0.031493 
127.702232 0.042846 
127.868851 0.049418 
128.034027 0.038013 
128.372177 0.028825 
128.948318 0.139236 
130.064941 1.58663 
130.122711 0.034345 
130.937256 0.050724 
130.94278 7.83653 
131.943069 0.682579 
132.043976 0.03998 
132.080948 0.072308 
132.898865 0.338287 
132.921814 0.057882 
134.893311 5.687681 
136.075439 1.924638 
136.890427 0.231412 
137.070724 12.40686 
137.503601 0.031975 
138.054718 100.0 
139.052322 0.056536 
139.058029 6.30226 
140.04921 0.044595 
141.015732 0.430486 
141.065353 0.127974 
141.911179 0.043734 
142.064911 8.64193 
143.060562 0.102058 
143.068298 0.428951 
143.990112 0.086773 
144.043945 0.077375 
144.189743 0.028719 
145.075241 0.046731 
145.917389 0.687627 
145.937546 0.032567 
145.966263 0.166216 
146.059891 0.552768 
146.964706 0.658351 
146.981674 0.032792 
147.043976 0.469183 
147.064529 0.041305 
148.702789 0.033713 
149.95459 0.044392 
150.091156 1.542181 
150.342194 0.032426 
152.965454 0.065691 
152.994553 0.717614 
153.898331 0.089812 
154.349564 0.034313 
154.953857 0.042074 
155.767822 0.037522 
156.068512 0.12692 
156.080643 0.398547 
156.890167 0.045949 
157.039398 0.173534 
157.075882 6.334149 
157.861465 0.030882 
158.059784 1.27825 
158.887299 0.034331 
158.937912 1.199446 
159.091553 1.881079 
159.499908 0.040786 
160.03981 0.030678 
160.093903 0.041299 
160.840805 0.3169 
160.989777 0.385672 
161.061478 0.213479 
161.91246 0.240083 
162.055099 0.127868 
162.837967 0.45152 
163.086411 1.23708 
163.865295 0.044561 
164.070541 3.943771 
164.894333 0.036649 
164.903351 0.041284 
165.911743 0.050493 
166.064987 0.090357 
167.060379 0.478414 
168.044357 2.131688 
168.080673 4.211 
169.076004 0.68769 
169.084106 0.121643 
169.930191 0.332277 
170.059967 0.366665 
171.054321 0.033118 
171.101776 0.11383 
171.709198 0.02461 
171.945679 4.404745 
171.982574 0.095592 
172.075027 0.032693 
172.086761 0.065073 
172.304886 0.035947 
172.946243 0.228181 
173.07077 0.081253 
173.961243 0.078569 
174.000885 0.162435 
174.055008 0.038426 
174.102554 0.116587 
174.907349 0.048278 
174.932297 0.031319 
175.339203 0.031303 
175.908569 0.07704 
176.908249 0.168837 
179.957581 0.192274 
181.076141 0.224291 
182.048615 0.050984 
182.06012 0.786114 
183.05542 3.977153 
183.091797 0.625324 
183.855759 0.044255 
184.000732 1.401425 
184.063202 1.680202 
184.0755 0.092181 
184.504395 0.179731 
184.86322 0.091508 
185.070953 8.523909 
185.573547 0.038617 
186.969238 0.477137 
188.985046 0.464814 
189.939392 0.030193 
190.050568 0.034126 
192.829376 0.040164 
193.075607 0.025134 
194.976608 0.081747 
195.091919 0.972279 
196.063522 0.416162 
197.071182 4.3658 
197.107361 0.088137 
198.078918 2.38804 
199.086685 9.985046 
199.169525 0.797236 
199.850128 1.384038 
199.879227 0.054256 
200.849808 0.151374 
200.858795 0.104197 
200.94429 0.709264 
201.025528 0.076033 
201.036972 0.240417 
202.122711 0.031298 
202.963715 0.036146 
203.118164 0.169778 
203.759872 0.027555 
204.979538 0.177533 
205.86058 0.044806 
206.824692 0.043142 
206.988251 0.030142 
207.09227 0.034008 
208.003296 0.513465 
208.929749 0.072251 
209.071381 0.025056 
209.107574 0.38629 
210.092102 0.044382 
211.086868 0.982503 
212.09491 0.038065 
213.0121 0.064903 
213.10257 1.583671 
213.193863 1.219427 
213.211563 1.635134 
213.905167 0.095716 
214.10437 0.031951 
214.155334 0.463682 
215.117722 0.177383 
215.845215 0.051418 
217.134445 0.03763 
218.037506 0.032658 
219.149796 0.686193 
220.920761 0.115155 
221.107071 0.035658 
221.12851 0.176101 
221.841675 1.635939 
221.929626 0.026952 
222.091705 0.050188 
222.971588 0.036892 
223.027679 0.639472 
223.087357 0.20188 
223.123474 1.12212 
223.8396 0.049231 
224.027771 0.081937 
224.107391 0.118871 
225.00708 0.818117 
225.102554 0.087397 
226.086624 0.081928 
227.200958 2.961996 
228.1026 0.154687 
228.204529 0.363331 
229.897736 0.032659 
231.066422 0.039034 
232.974716 0.712825 
234.063812 0.308946 
234.566452 0.033231 
235.088303 0.032616 
235.096375 0.042467 
235.300064 0.049505 
237.102722 6.212603 
237.139175 0.535183 
238.086884 0.034294 
238.110764 2.454096 
239.082169 4.635503 
239.118423 16.489101 
240.089951 1.267934 
240.102753 0.041292 
241.072083 0.499311 
241.097733 2.343666 
241.134186 0.153307 
242.129379 0.381656 
242.86882 0.082983 
245.107346 0.053619 
245.129364 0.218071 
247.072403 0.125073 
248.079605 9.138489 
248.5811 0.19499 
249.102005 0.041428 
251.053253 0.041125 
251.118622 5.201721 
252.090729 0.052566 
252.121841 0.108512 
253.097961 0.563342 
253.134293 7.440714 
253.216751 0.387442 
254.080246 0.285319 
254.105698 4.053561 
255.087708 2.848674 
255.113495 2.230752 
255.149048 0.044693 
255.232513 4.041025 
256.085052 0.688675 
256.120728 0.123745 
256.235901 0.564586 
257.108032 0.168361 
257.129486 1.10771 
259.086914 0.02823 
262.155853 0.223181 
263.118622 0.582052 
263.139313 0.129675 
264.854492 0.033516 
265.134735 0.041063 
265.147156 0.041068 
267.151001 0.040304 
268.145111 0.25968 
268.942749 0.141445 
269.31189 0.043193 
270.116028 0.703222 
271.123291 0.141028 
272.849792 0.041605 
272.900879 0.087788 
273.103027 1.211417 
273.495392 0.040318 
274.880585 0.41344 
276.102692 0.046395 
277.184204 0.221159 
277.216797 1.761881 
277.325592 0.037804 
278.220459 1.022149 
278.778809 0.040006 
279.233124 0.183288 
281.246979 0.046955 
282.99472 1.878109 
283.123718 0.548162 
283.263824 3.456401 
283.81488 0.04325 
283.994812 0.795605 
284.094788 0.213018 
284.267487 0.358628 
284.974121 10.803568 
284.990784 0.60022 
285.103455 0.177199 
285.139435 1.831668 
285.974182 2.09045 
286.97113 0.59873 
287.052216 0.042326 
292.143646 0.024676 
293.950409 0.03986 
294.818237 0.038421 
295.124329 0.136736 
295.26123 0.039687 
297.119904 0.028179 
298.09845 0.428736 
298.134796 0.083458 
299.154541 0.265371 
300.150574 1.555397 
301.16983 0.045948 
303.112915 0.053735 
304.20105 0.053167 
304.963867 0.083173 
305.129395 0.464807 
306.943573 0.159818 
308.118286 0.103439 
309.174255 0.444014 
310.097137 0.052789 
310.13443 0.360844 
311.105835 0.041804 
311.168762 1.749544 
312.114044 2.662776 
312.150726 0.636237 
313.121918 1.51036 
314.130035 0.536548 
318.161041 2.364565 
318.217926 0.400484 
319.16394 0.096854 
323.142303 0.12316 
324.114136 0.43868 
325.183929 12.177562 
325.479767 0.041348 
326.13031 0.311507 
326.165863 1.346123 
326.187286 2.246923 
327.091278 0.044066 
328.145111 5.014583 
328.181274 0.817081 
336.171631 0.875815 
337.174377 0.036519 
338.129364 0.235324 
338.165894 1.515064 
338.31427 0.044175 
339.199799 1.490626 
340.144958 8.406541 
340.181427 0.039595 
341.140381 0.570556 
341.176849 0.535458 
342.961487 0.301963 
343.156342 1.015367 
343.213898 0.073269 
343.961548 0.09183 
344.196991 0.107359 
346.919891 0.091462 
352.145752 0.178443 
352.180878 0.045315 
354.161133 1.015514 
355.155365 0.366263 
355.192474 3.50736 
356.196136 0.455942 
357.013824 0.272245 
357.172028 3.937494 
358.014221 0.562734 
358.992126 0.471761 
359.015686 0.043961 
365.145386 0.037442 
365.293579 0.036605 
368.176514 1.858181 
369.171387 0.184776 
370.192078 0.048128 
371.1875 0.095226 
376.169159 0.061258 
377.002197 0.13913 
378.004272 0.559808 
379.00238 0.236955 
379.82489 0.049149 
379.978882 0.038672 
380.002991 0.045802 
380.176544 2.373805 
383.151337 0.975931 
391.996887 0.051111 
392.99411 0.029284 
396.170227 0.036719 
396.210175 0.042531 
397.117279 0.047209 
397.16925 0.179254 
397.2034 1.36342 
398.187042 0.129831 
398.967468 0.034126 
401.058197 0.027028 
401.218414 0.054738 
402.273438 0.031026 
406.192078 0.255819 
407.291687 0.026575 
409.898956 0.035866 
413.199158 0.168977 
413.234528 1.254699 
414.111603 0.061905 
414.238129 0.045725 
415.000458 0.087362 
415.107849 0.15121 
416.001953 1.282137 
416.978363 2.019049 
417.980438 0.445261 
418.958923 7.771148 
422.133636 0.032553 
422.227142 0.032129 
423.183807 0.042494 
425.194336 0.046077 
425.277283 0.154922 
433.20343 1.081984 
435.181335 0.032824 
437.197449 0.325995 
448.157928 0.057333 
449.01416 0.044375 
449.199188 0.112333 
449.234009 4.446763 
450.237488 0.998735 
451.213196 5.302753 
460.875671 0.041177 
463.213013 0.368691 
465.228638 0.04671 
465.288818 0.10639 
466.980652 0.046781 
475.452881 0.02792 
491.0 0.077869 
491.245178 6.0955 
491.28241 0.042769 
492.430511 0.027082 
497.241119 0.046544 
502.540375 0.048409 
502.753265 0.041158 
506.136047 5.015583 
507.132263 2.394971 
507.23941 1.299143 
507.276062 14.570847 
507.512451 0.036721 
508.134827 0.198233 
508.242554 0.254725 
508.279297 5.271139 
509.253754 7.824626 
END IONS

