BEGIN IONS
PEPMASS=414.155
CHARGE=1+
COMPOUNDNAME=Massbank: Noscapine
LIBRARYQUALITY=3
SMILES=[H]C([H])([H])Oc(c([H])5)c(OC([H])([H])[H])c(C(=O)4)c(c([H])5)C([H])(O4)C([H])(N(C([H])([H])[H])1)c(c(OC([H])([H])[H])2)c(c([H])c(O3)c(OC([H])([H])3)2)C([H])([H])C([H])([H])1
INCHIKEY=AKNNEGZIBPJZJG-UHFFFAOYSA-N
INCHI=1S/C22H23NO7/c1-23-8-7-11-9-14-20(29-10-28-14)21(27-4)15(11)17(23)18-12-5-6-13(25-2)19(26-3)16(12)22(24)30-18/h5-6,9,17-18H,7-8,10H2,1-4H3
MSLEVEL=2
SOURCE_INSTRUMENT=ESI-LC-ESI-QTOF
FILENAME=Massbank_ESI_positive_8_1_2014_peaks.mgf
SEQ=*..*
IONMODE=Positive
ORGANISM=MASSBANK
NAME=Massbank: Noscapine [M+H]+
PI=Putative Massbank Match
DATACOLLECTOR=Massbank
PUBMED=N/A
SUBMITUSER=mwang87
TAGS=
SPECTRUMID=CCMSLIB00000206281
SCANS=1540
77.0395 136.65 
91.0542 442.537 
103.0548 210.809 
107.0548 109.749 
118.0566 128.725 
119.0587 212.284 
121.0689 549.417 
122.0367 120.772 
130.0439 241.518 
131.0507 315.274 
132.0583 161.459 
133.0598 247.15 
134.0452 166.421 
135.0477 210.943 
146.0476 216.441 
147.0667 641.813 
148.075 494.167 
149.0735 310.447 
152.0644 132.708 
153.0697 196.728 
158.0406 121.349 
159.0526 175.003 
160.0574 214.563 
161.0589 133.593 
162.0479 170.042 
162.0756 101.851 
163.049 240.177 
164.0542 223.817 
165.0673 719.458 
166.0759 124.795 
167.0826 144.696 
174.0487 478.342 
175.0603 430.87 
176.0628 712.887 
177.0611 845.648 
178.077 496.044 
179.0755 400.429 
180.0619 159.984 
181.0662 761.969 
183.0798 113.799 
188.0527 767.333 
189.0664 571.946 
190.0704 411.962 
191.0594 1539.493 
192.0605 399.222 
193.0625 510.929 
194.0723 468.285 
195.0801 424.568 
196.0734 211.345 
197.0638 126.016 
202.0711 134.075 
203.058 559.206 
204.0634 1210.406 
205.0726 10000.0 
206.0795 2234.142 
207.0737 554.513 
208.071 319.968 
209.0613 1096.956 
210.0713 165.482 
211.0742 273.032 
216.0589 179.429 
217.064 240.445 
218.0762 717.044 
219.0643 698.806 
220.0414 288.722 
220.0949 3884.94 
221.0604 1296.768 
222.0661 628.001 
223.0734 828.483 
224.0788 575.567 
225.0707 222.341 
231.0556 190.559 
232.0547 512.539 
233.0602 1014.885 
234.0673 1099.37 
235.0708 972.241 
236.055 834.518 
237.0553 2070.538 
238.0728 355.371 
239.0692 494.703 
244.054 128.738 
245.0589 191.498 
246.0663 347.056 
247.0548 766.126 
248.0559 738.233 
249.0561 1772.831 
250.0644 819.096 
251.0691 1385.276 
252.0708 865.093 
253.0788 343.302 
254.079 251.576 
255.0644 143.623 
259.0439 180.367 
260.0518 239.775 
261.0557 794.69 
262.0627 1055.518 
263.0664 1052.434 
264.0645 1072.147 
265.0501 3416.924 
266.0649 686.469 
267.0656 711.01 
268.0831 138.93 
269.0794 157.972 
273.0548 132.412 
274.0586 209.065 
275.0607 347.191 
276.0607 446.828 
277.0536 1260.024 
278.0643 677.484 
279.0644 1383.935 
280.0701 2140.271 
281.0783 688.481 
282.0777 296.5 
283.0606 196.46 
289.0504 598.498 
290.0603 404.318 
291.0643 539.359 
292.0534 646.373 
293.0613 924.232 
294.0672 696.124 
295.0631 1610.567 
296.0889 206.92 
297.0731 149.524 
303.0643 106.048 
304.0598 262.84 
305.0607 559.608 
306.0644 891.243 
307.0597 1560.949 
308.0622 637.254 
309.0729 588.843 
310.0796 435.564 
318.0696 182.915 
319.063 322.784 
320.0616 369.586 
321.0682 414.912 
322.0719 514.148 
323.0668 617.675 
324.0846 179.563 
332.0618 117.098 
334.0707 488.132 
335.0598 169.371 
336.0786 306.423 
337.0728 360.735 
338.0747 312.324 
350.0739 129.556 
351.069 177.149 
352.0849 195.119 
362.0727 252.112 
364.0819 124.474 
366.0906 101.126 
END IONS

