BEGIN IONS
PEPMASS=623.337
CHARGE=1+
COMPOUNDNAME=deferrioxamine E
LIBRARYQUALITY=3
SMILES=N/A
INCHIKEY=NHKCCADZVLTPPO-UHFFFAOYSA-N
INCHI=InChI=1S/C27H48N6O9/c34-22-10-14-26(38)32(41)20-8-3-6-18-30-24(36)12-15-27(39)33(42)21-9-2-5-17-29-23(35)11-13-25(37)31(40)19-7-1-4-16-28-22/h40-42H,1-21H2,(H,28,34)(H,29,35)(H,30,36)
MSLEVEL=2
SOURCE_INSTRUMENT=N/A-ESI-QFT
FILENAME=library_mgf.mgf
SEQ=*..*
IONMODE=positive
ORGANISM=MONA
NAME=deferrioxamine E [M+Na]+
PI=MoNA
DATACOLLECTOR=MoNA:VF-NPL-QEHF004055
PUBMED=N/A
SUBMITUSER=mwang87
TAGS=
SPECTRUMID=CCMSLIB00004695118
SCANS=4055
50.017712 0.432686 
50.353275 0.058636 
50.481762 0.220775 
50.564552 0.413723 
50.797089 0.045152 
50.931042 0.417742 
50.970306 0.065112 
51.178082 0.207296 
51.682663 0.329229 
52.031105 0.100851 
53.544643 0.195884 
54.512798 0.063686 
54.785069 0.43549 
55.015305 0.23357 
55.731312 0.121056 
55.778625 0.304402 
56.275993 0.352417 
56.364689 0.168968 
56.549644 0.044154 
56.756905 0.406548 
56.87196 0.113014 
56.910591 0.449249 
57.013172 0.378264 
57.101627 0.214398 
57.569927 0.318249 
57.828472 0.256036 
58.006554 0.395488 
59.221222 0.171172 
59.819401 0.391345 
60.259678 0.059509 
60.518005 0.367069 
60.572136 0.201297 
61.552254 0.230499 
61.825912 0.242553 
62.617287 0.314832 
62.632885 0.285792 
63.797054 0.213432 
65.834373 0.336775 
66.193253 0.312064 
66.632385 0.21702 
66.698952 0.295681 
66.937019 0.043078 
67.585976 0.316297 
67.630203 0.328726 
68.185196 0.233625 
68.220291 0.414448 
68.224983 0.041534 
68.244438 0.296806 
68.751175 0.053376 
69.070892 0.039162 
71.087471 0.353058 
71.30777 0.203248 
71.437668 0.044718 
71.589607 0.340567 
71.720795 0.201179 
71.76712 0.193134 
72.65535 0.263424 
74.668312 0.395003 
74.768288 0.295886 
75.831909 0.045208 
76.111046 0.098255 
78.132835 0.459868 
78.378059 0.177286 
78.747673 0.204883 
79.202812 0.448159 
80.203949 0.437769 
80.538864 0.24986 
81.018814 0.447721 
82.975281 0.043482 
83.645218 0.284457 
84.081398 23.160032 
85.084816 0.059852 
85.417236 0.305587 
85.937935 0.391422 
86.680191 0.105254 
86.884224 0.317732 
87.60154 0.21114 
88.582161 0.371193 
89.132378 0.444981 
89.511787 0.175305 
90.823212 0.351242 
93.436836 0.293869 
93.661049 0.228655 
94.026962 0.408578 
95.034683 0.670965 
95.406372 0.042489 
95.536385 0.291141 
95.785217 0.388468 
95.87645 0.422887 
96.219093 0.040506 
96.69619 0.120362 
97.104996 0.041511 
97.641426 0.190328 
100.039749 0.248838 
101.428909 0.173992 
102.091866 0.23954 
102.377525 0.331808 
102.825218 0.34709 
104.217422 0.215784 
105.988441 0.176245 
106.059326 0.797747 
106.063156 100.0 
107.066574 1.569207 
107.616592 0.060247 
108.042381 1.921277 
108.607559 0.34244 
109.037544 0.191254 
109.050179 4.715096 
113.150124 0.230166 
117.944145 0.481629 
118.11937 0.37609 
118.761131 0.399922 
119.615036 0.396048 
120.034172 0.339178 
121.109009 0.241759 
121.928841 0.362953 
122.05793 13.339159 
122.431351 0.463759 
123.005547 69.062447 
123.065765 2.238601 
123.0895 66.48423 
123.326851 0.372169 
124.092766 0.350651 
124.291168 0.358577 
125.105194 3.632288 
126.19413 0.128652 
127.3675 0.229251 
129.274384 0.348552 
131.768539 0.057919 
132.050201 0.229845 
133.424637 0.240729 
135.460205 0.344358 
136.07341 2.80548 
137.081223 1.080335 
137.105164 0.818552 
139.217972 0.164976 
140.031876 1.934716 
140.09227 0.384015 
141.099869 3.88069 
142.117523 0.532306 
142.647461 0.303751 
144.732758 0.104318 
145.435226 0.250234 
146.08371 0.105148 
146.89476 0.462687 
147.475754 0.397271 
148.072845 0.059898 
148.686981 0.059893 
150.089111 4.097026 
151.084335 3.715459 
151.096924 7.714246 
152.943146 0.417834 
153.014038 0.054212 
153.039734 4.847154 
154.047104 0.336271 
154.662323 0.053186 
156.381744 0.05656 
156.669296 0.318675 
159.461685 0.158536 
160.061142 0.246885 
164.104828 0.248027 
165.06395 0.110153 
165.099655 1.351023 
166.047699 11.181959 
166.086823 0.166547 
166.955551 0.214676 
167.079376 1.152891 
167.935028 0.181891 
168.050583 0.940347 
168.063049 0.209976 
169.073944 0.043693 
170.663254 0.421594 
173.770691 0.254586 
176.436859 0.114258 
176.505798 0.495107 
177.099792 7.739742 
177.194275 0.246367 
179.079453 1.873976 
179.115646 24.871176 
179.441315 0.191745 
180.063171 4.83305 
181.058365 2.723351 
181.886459 0.455645 
182.066193 0.365386 
183.110596 9.267356 
184.11528 0.234303 
190.294647 0.449219 
193.094971 1.126376 
194.079163 1.925995 
195.074463 2.90573 
195.086472 1.58265 
195.110596 9.470005 
196.094421 5.504491 
196.118011 0.088987 
197.113693 0.106841 
201.123871 0.159006 
202.501297 0.300058 
203.595123 0.170634 
205.09491 19.469461 
206.079254 1.050612 
206.164871 0.292219 
207.110519 14.791798 
208.094711 10.287366 
209.089554 1.019527 
209.100632 0.426997 
209.126221 0.182421 
210.097717 4.4437 
211.957748 0.066737 
215.124435 0.522871 
219.438629 0.178462 
219.47377 0.448128 
221.126022 1.627056 
222.121445 8.709765 
223.105392 85.627441 
224.109299 3.028674 
224.136353 1.088491 
225.12117 13.692293 
231.448608 0.371426 
233.126221 0.15455 
233.241699 0.283963 
233.618942 0.420157 
234.121231 8.471844 
235.105576 0.666103 
235.141693 0.094053 
235.606216 0.193695 
236.137115 3.487796 
237.108749 0.388833 
237.121048 13.000544 
238.129913 0.070586 
239.100586 1.697557 
240.107986 4.644925 
241.116058 5.846918 
247.104523 0.60501 
247.519974 0.465456 
248.137115 1.562338 
249.4496 0.060843 
250.115997 3.151535 
250.152893 1.478732 
250.18927 0.053255 
251.10025 16.827766 
251.136414 4.440859 
252.131699 0.578517 
252.143875 0.450771 
253.981888 0.116972 
257.435394 0.374001 
259.396179 0.234579 
261.120941 2.378362 
265.11615 1.824833 
265.153015 0.678575 
265.516571 0.119623 
266.147308 4.183765 
266.87851 0.121337 
267.638672 0.050017 
274.24881 0.388403 
276.168457 0.83035 
277.116241 1.567445 
278.147522 0.729705 
278.185272 0.187186 
279.13147 11.73892 
279.215576 17.236265 
280.162933 3.670883 
280.219696 0.081022 
283.125214 0.315709 
287.388336 0.252582 
290.145996 0.701477 
290.183899 2.15853 
292.163574 3.292776 
294.178894 2.017271 
295.12677 0.293671 
304.095856 0.458379 
304.164734 0.173132 
304.594513 0.266719 
305.110962 0.751168 
305.194366 1.903481 
306.141388 0.509425 
306.178497 4.893759 
307.126526 0.152665 
307.183197 0.057716 
307.21051 2.799147 
308.157959 1.14685 
308.194672 2.210781 
309.375763 0.115254 
318.619904 0.311994 
320.119507 0.507991 
320.158264 0.718538 
322.140198 0.404787 
322.173645 4.52222 
322.664307 0.21561 
323.121155 15.542152 
323.204956 55.070656 
324.208588 5.159094 
325.222198 0.354983 
327.062042 0.475457 
328.445251 0.271149 
330.586548 0.35372 
333.189789 2.160015 
335.34314 0.429051 
336.189087 1.791604 
339.399536 0.212985 
340.94162 0.333232 
341.216492 0.846204 
344.711151 0.11215 
348.190216 0.383865 
349.158478 0.427381 
349.185486 0.723122 
350.205322 1.388286 
351.199799 2.384228 
351.796143 0.060898 
352.204834 0.093162 
354.946198 0.053085 
361.220856 13.860076 
365.216003 9.647432 
366.163696 2.269478 
367.230835 0.38769 
376.184601 0.417673 
377.216125 11.03408 
379.231506 7.882685 
380.176697 0.935147 
382.916321 0.235946 
387.200043 0.049614 
389.215454 1.66509 
390.197876 0.139627 
393.211029 2.956634 
405.210999 19.57386 
405.729919 0.046625 
406.216309 0.696012 
407.186981 0.253027 
407.226501 3.704497 
407.719696 0.359259 
408.17157 0.074914 
419.225677 0.469116 
423.220856 28.905006 
424.223846 1.590183 
425.197693 0.170388 
433.056885 0.373788 
433.206421 2.335049 
433.242218 0.612704 
434.208374 0.59971 
434.238831 1.028678 
434.298004 0.459293 
439.386627 0.11062 
440.619415 0.071682 
451.135193 0.487317 
451.216766 0.722763 
451.254669 0.070166 
461.236298 0.373726 
461.570984 0.052517 
462.232605 0.487614 
474.901031 0.199283 
479.247284 0.202519 
481.233521 0.486506 
488.280701 0.416725 
490.261108 0.079205 
493.354584 0.442983 
506.660706 0.064884 
508.269958 0.059253 
520.273804 0.532988 
523.321899 9.724447 
524.321106 0.264788 
550.136414 0.051974 
559.009888 0.390407 
572.681335 0.360671 
579.347168 0.653909 
589.044922 0.062616 
589.331299 5.321663 
590.333801 0.065581 
602.051392 0.391934 
605.324768 0.393324 
607.298584 0.068568 
618.655457 0.543603 
623.336792 32.853577 
624.340271 8.146376 
END IONS

