BEGIN IONS
PEPMASS=890.526
CHARGE=1+
COMPOUNDNAME=ABAMECTIN
LIBRARYQUALITY=3
SMILES=N/A
INCHIKEY=RRZXIRBKKLTSOM-XPNPUAGNSA-N
INCHI=InChI=1S/C48H72O14/c1-11-25(2)43-28(5)17-18-47(62-43)23-34-20-33(61-47)16-15-27(4)42(26(3)13-12-14-32-24-55-45-40(49)29(6)19-35(46(51)58-34)48(32,45)52)59-39-22-37(54-10)44(31(8)57-39)60-38-21-36(53-9)41(50)30(7)56-38/h12-15,17-19,25-26,28,30-31,33-45,49-50,52H,11,16,20-24H2,1-10H3/b13-12+,27-15+,32-14+/t25-,26-,28-,30-,31-,33+,34-,35-,36-,37-,38-,39-,40+,41-,42-,43+,44-,45+,47+,48+/m0/s1
MSLEVEL=2
SOURCE_INSTRUMENT=N/A-ESI-QFT
FILENAME=library_mgf.mgf
SEQ=*..*
IONMODE=positive
ORGANISM=MONA
NAME=ABAMECTIN [M+NH4]+
PI=MoNA
DATACOLLECTOR=MoNA:VF-NPL-QEHF028050
PUBMED=N/A
SUBMITUSER=mwang87
TAGS=
SPECTRUMID=CCMSLIB00004721631
SCANS=28050
63.564011 0.089213 
63.947289 0.07456 
64.073036 0.141245 
64.790459 0.083027 
65.038742 4.591457 
65.559212 0.157726 
66.128593 0.131239 
66.279373 0.164866 
66.404373 0.089312 
66.755287 0.132175 
67.054329 57.573338 
67.349777 0.164011 
67.537758 0.135027 
68.057686 0.157653 
68.310844 0.059161 
68.773674 0.05001 
68.812859 0.092445 
69.033546 100.0 
69.069946 8.233194 
69.121803 0.130534 
70.036888 2.00157 
70.157761 0.126196 
70.727173 0.051242 
70.806427 0.143694 
71.049171 14.013179 
71.412872 0.09103 
71.543266 0.050218 
73.046806 1.224505 
73.064796 10.05909 
73.338913 0.040733 
73.503716 0.13547 
73.58744 0.159043 
73.593124 0.117541 
73.636276 0.088924 
73.776207 0.138102 
74.047729 0.137771 
74.129242 0.119349 
75.044334 0.063779 
75.060844 0.138167 
75.571434 0.132242 
76.588654 0.042542 
77.676041 0.134304 
78.234848 0.119793 
79.054192 19.6346 
80.985985 0.046846 
81.03347 0.205139 
81.069862 40.500195 
82.073235 0.398962 
82.160454 0.073096 
82.353767 0.155701 
82.553497 0.110152 
82.646858 0.104841 
83.003799 0.043134 
83.049126 4.721798 
83.085503 1.437033 
83.350906 0.097393 
83.665504 0.116369 
83.834236 0.064363 
83.843788 0.120964 
84.988869 0.141605 
85.028366 9.385107 
85.064781 8.569401 
85.187317 0.050855 
86.172615 0.138158 
87.044037 14.806289 
88.060265 0.099329 
89.810143 0.104746 
90.614906 0.055804 
91.054199 10.826488 
91.057259 3.323727 
91.400314 0.147382 
93.069832 12.974661 
95.049072 69.983192 
95.085464 9.351886 
95.411865 0.12592 
95.515625 0.13852 
95.861717 0.111292 
96.05246 2.559225 
97.064751 10.675846 
97.913948 0.142394 
98.383789 0.126598 
99.044197 0.273062 
99.3526 0.051931 
99.623505 0.129838 
100.978401 0.10595 
101.059677 1.347346 
101.632011 0.112243 
102.080765 0.121142 
102.447716 0.108277 
102.519058 0.08182 
103.145569 0.043298 
104.390739 0.04177 
105.044746 0.141922 
105.069824 10.800205 
106.397812 0.046958 
107.049118 2.723113 
107.08548 7.086942 
107.530838 0.111798 
107.690514 0.117786 
109.064751 10.794681 
109.101189 15.450053 
110.104439 0.187038 
110.131416 0.073535 
110.199135 0.078978 
110.429199 0.062563 
110.856567 0.132736 
110.975258 7.487256 
111.044098 0.509618 
112.511215 0.140557 
112.589333 0.155956 
112.868729 0.050475 
113.059601 21.816841 
115.036995 0.129485 
115.054153 0.217737 
115.940681 0.098339 
116.609612 0.12262 
116.761848 0.168894 
117.069763 2.232426 
117.642159 0.071235 
117.794441 0.144906 
117.938393 0.149368 
118.304779 0.107464 
118.415901 0.154388 
119.085396 5.726708 
119.504318 0.114925 
119.941154 0.07664 
120.324791 0.103398 
121.064728 2.333881 
121.088959 0.171065 
121.101059 1.822184 
123.043915 0.092625 
123.08036 1.804346 
123.116692 25.427114 
124.120125 0.363308 
124.941772 0.132917 
125.059654 0.272317 
125.356094 0.118431 
125.807899 0.048068 
126.567329 0.082072 
127.075218 1.701163 
128.061996 0.642896 
128.744888 0.12027 
128.985764 8.333424 
129.069885 1.403396 
131.08548 2.805702 
131.687057 0.139255 
133.101089 1.911803 
134.420959 0.107231 
135.044144 0.101123 
135.080124 0.18237 
135.408951 0.141616 
136.393875 0.137461 
136.454666 0.136877 
140.195297 0.132301 
141.069641 0.417452 
141.881577 0.172645 
142.077591 0.851291 
142.716187 0.047589 
143.001373 0.289511 
143.06636 0.091899 
143.085541 2.818167 
145.064667 0.812341 
145.085175 0.175638 
145.101151 1.47448 
145.753723 0.153347 
145.950424 0.136452 
146.996292 1.403121 
147.839249 0.121378 
148.217224 0.116831 
148.659378 0.126708 
151.111557 1.586874 
151.200989 0.138081 
151.368866 0.090465 
152.380005 0.134505 
153.523483 0.129606 
154.077682 0.198919 
154.471375 0.135907 
155.085403 0.150225 
156.074753 0.144478 
156.093262 0.560841 
157.017349 0.064753 
157.064224 0.088203 
158.072601 0.183976 
158.285538 0.134469 
159.080673 0.164032 
159.117279 0.06123 
161.011429 0.131506 
161.740341 0.161823 
162.946487 0.153728 
165.069611 0.073593 
167.055542 0.146766 
167.409302 0.164837 
169.01709 0.562737 
169.10141 0.058331 
169.304993 0.125294 
171.080276 0.063429 
171.117142 0.258014 
171.806625 0.130813 
173.064682 0.072446 
173.20845 0.150279 
173.573761 0.179565 
173.578705 0.167262 
175.679291 0.05382 
176.048782 0.043609 
177.84407 0.101705 
179.08519 0.185204 
185.403549 0.059771 
187.027557 0.084902 
195.057724 0.14451 
195.585205 0.059838 
196.340698 0.10497 
198.665237 0.080774 
199.029648 0.064607 
199.112854 0.282402 
199.711838 0.154023 
199.978485 0.077502 
201.304199 0.091983 
201.588425 0.051315 
204.090302 0.077969 
210.69754 0.139819 
211.484802 0.152228 
215.96048 0.070005 
219.508118 0.050244 
219.77536 1.759033 
219.802429 0.194772 
221.09462 0.149784 
223.567459 0.142996 
229.328354 0.158962 
232.558197 0.071115 
234.979874 0.125133 
237.724533 0.048125 
240.908768 0.092905 
242.104385 0.143699 
243.162811 0.04354 
246.576599 0.129765 
252.400253 0.155658 
254.112686 0.045067 
255.069046 0.397645 
257.728699 0.152944 
260.730927 0.141277 
261.4487 0.068521 
265.671509 0.09726 
266.919525 0.119761 
269.770111 0.160449 
269.980103 0.106242 
271.253937 0.09261 
271.900055 0.147645 
273.079529 2.766886 
274.192688 0.133874 
274.279663 0.055702 
275.643524 0.090864 
277.518372 0.098154 
278.326385 0.069096 
281.9133 0.078198 
284.86496 0.052519 
289.552612 0.05372 
293.46109 0.196558 
299.480988 0.156647 
301.627319 0.12779 
308.225769 0.134003 
308.378021 0.0551 
313.475555 0.042316 
318.372345 0.099507 
323.550812 0.148878 
329.580475 0.158494 
337.265625 0.093293 
345.97403 0.066973 
347.784851 0.055403 
356.517548 0.049025 
359.54245 0.05978 
360.836792 0.25912 
371.450806 0.143746 
378.926941 0.107576 
379.156647 0.098734 
388.304565 0.098602 
391.47583 0.113302 
394.822815 0.166574 
400.732544 0.074366 
400.779846 0.095568 
404.069244 0.049903 
406.288635 0.109694 
408.082123 0.057121 
410.573456 0.164936 
410.868652 0.146989 
412.744507 0.055328 
424.033325 0.161505 
442.010925 0.056425 
443.271606 0.110744 
447.343811 0.143117 
450.257294 0.117438 
459.547211 0.076714 
466.787262 0.122728 
468.844208 0.164844 
471.50943 0.113797 
479.99649 0.050957 
482.410156 0.080255 
486.2435 0.150669 
492.904114 0.133936 
503.773315 0.106226 
512.056946 0.109238 
512.654114 0.170377 
513.764221 0.172354 
514.770264 0.053802 
517.694336 0.143156 
518.302734 0.05069 
522.259583 0.148674 
522.390869 0.138628 
538.498535 0.12332 
549.496826 0.155847 
549.783325 0.140584 
565.973328 0.046571 
575.075745 0.145383 
595.559998 0.165159 
598.647705 0.111003 
612.341003 0.10938 
623.065918 0.156085 
625.520996 0.137867 
629.440369 0.055259 
629.497681 0.136831 
631.820679 0.097806 
632.762268 0.135482 
665.500061 0.186553 
673.327148 0.073054 
679.713989 0.126685 
699.558655 0.154385 
705.231995 0.157302 
705.331604 0.227738 
708.471313 0.05246 
718.34491 0.107438 
733.019348 0.167224 
745.809631 0.171368 
747.312195 0.142986 
755.964966 0.135724 
769.976624 0.167519 
788.623596 0.14358 
788.916931 0.074404 
798.056824 0.112222 
802.917969 0.05682 
817.326111 0.073029 
828.877869 0.119249 
848.738281 0.166788 
861.35614 0.088736 
871.796265 0.150605 
877.115601 0.155805 
886.265503 0.108889 
892.338867 0.085502 
899.937622 0.064326 
END IONS

