BEGIN IONS
PEPMASS=120.077
CHARGE=1+
COMPOUNDNAME=CYCLOSERINE
LIBRARYQUALITY=3
SMILES=N/A
INCHIKEY=DYDCUQKUCUHJBH-UWTATZPHSA-N
INCHI=InChI=1S/C3H6N2O2/c4-2-1-7-5-3(2)6/h2H,1,4H2,(H,5,6)/t2-/m1/s1
MSLEVEL=2
SOURCE_INSTRUMENT=N/A-ESI-QFT
FILENAME=library_mgf.mgf
SEQ=*..*
IONMODE=positive
ORGANISM=MONA
NAME=CYCLOSERINE [M+NH4]+
PI=MoNA
DATACOLLECTOR=MoNA:VF-NPL-QEHF027823
PUBMED=N/A
SUBMITUSER=mwang87
TAGS=
SPECTRUMID=CCMSLIB00004721404
SCANS=27823
50.179016 0.007317 
50.303104 0.031192 
51.929852 0.007033 
52.168648 0.032097 
52.462685 0.009377 
52.960808 0.007293 
53.930794 0.006561 
54.103043 0.007382 
54.792194 0.006024 
55.054558 0.02315 
55.14912 0.007675 
55.458683 0.007199 
55.795055 0.006769 
55.979713 0.028923 
56.049759 0.575363 
56.158657 0.035234 
56.319405 0.007355 
57.044987 0.068769 
57.070202 0.023635 
57.716057 0.007889 
57.935036 0.233674 
58.028984 70.772552 
58.065372 1.26375 
58.292366 0.007714 
58.601349 0.008008 
58.63316 0.036331 
59.02607 0.056922 
59.032341 0.713655 
59.049198 0.008097 
59.073181 0.540657 
59.930424 0.007296 
60.044621 5.031334 
61.010845 0.596794 
61.039833 0.074162 
61.048004 0.020612 
61.642597 0.008952 
62.292274 0.008485 
62.463936 0.005842 
65.434982 0.005934 
65.465874 0.008786 
65.728279 0.005684 
66.033997 0.024626 
68.653336 0.006591 
69.651047 0.005716 
69.720657 0.007486 
70.028816 0.868539 
70.737961 0.006505 
70.857468 0.037998 
71.036659 0.162917 
71.159866 0.008718 
72.080811 1.197892 
72.16748 0.031842 
72.90892 0.006687 
73.028442 0.212218 
73.084114 0.024167 
73.723824 0.00731 
74.023659 19.964516 
74.060043 1.221958 
74.096413 0.047578 
74.265221 0.007411 
74.96006 0.005228 
75.027077 0.064056 
75.031593 0.024692 
75.05529 100.0 
75.151848 0.009107 
75.155907 0.041487 
75.569016 0.008898 
75.978775 0.007321 
76.03933 0.428466 
76.052361 0.214464 
76.058632 0.942676 
76.06102 0.008577 
76.075661 0.213281 
76.249741 0.008894 
76.734627 0.008024 
76.89579 0.007931 
76.927727 0.006842 
77.113976 0.006698 
78.060257 0.009266 
79.054214 0.064982 
79.68557 0.008792 
79.860832 0.00841 
79.977531 0.007238 
80.94545 0.007225 
81.199341 0.009089 
82.637199 0.009333 
84.294464 0.008733 
84.471321 0.008107 
84.631264 0.03532 
85.028137 0.00653 
85.039589 0.471969 
85.751305 0.007355 
86.09642 0.919181 
87.04406 0.018002 
87.226456 0.007625 
88.039314 37.580524 
88.479698 0.008479 
88.632896 0.006502 
89.042656 0.474456 
89.047127 1.53121 
90.947685 0.009381 
91.054214 1.864385 
91.49942 0.26335 
93.044746 2.019949 
93.069901 0.3354 
93.073074 0.008252 
93.306198 0.008398 
94.815926 0.044198 
96.011124 5.323456 
96.396324 0.009054 
96.995285 0.095955 
97.010796 0.193194 
98.611633 0.00839 
99.011185 0.30001 
99.382324 0.033422 
100.000771 0.209708 
100.021332 0.05119 
100.047371 0.006858 
100.112091 0.855347 
100.504768 3.56863 
100.843307 0.057112 
101.005157 0.092957 
101.115616 0.045418 
101.119843 0.055464 
102.03698 0.215444 
102.054955 0.885819 
102.091309 0.4253 
103.050224 2.58409 
103.053978 0.337977 
104.034187 2.666708 
104.070755 0.017972 
105.037308 0.007195 
105.070168 0.008558 
106.257278 0.034797 
108.016441 2.585599 
108.432495 0.037582 
108.516884 0.071777 
108.834976 0.006827 
109.487534 0.008804 
109.510025 0.275289 
109.975334 0.006988 
111.181412 0.007794 
113.450211 0.008536 
116.497124 0.007092 
117.272026 0.005922 
118.04982 0.090423 
118.065102 0.101837 
118.086258 3.684777 
118.12265 2.350311 
119.060394 0.100143 
119.085411 0.175405 
119.089699 0.413333 
119.125977 0.182558 
119.562721 0.006125 
120.047546 20.177547 
120.065598 0.079468 
120.076378 0.008535 
120.080811 1.592791 
120.101952 0.722706 
120.106224 0.009663 
120.905602 0.008348 
121.028496 0.062684 
121.03965 5.396768 
121.046951 0.906602 
121.051086 0.545148 
121.06073 13.246502 
121.08416 0.023923 
121.101257 0.124761 
121.478043 0.008777 
122.043915 0.259945 
122.064102 0.07018 
122.09642 0.086403 
123.899529 0.008264 
128.100143 0.009087 
128.290634 0.00631 
128.867599 0.008866 
129.673767 0.006789 
133.066711 0.006646 
134.676544 0.006392 
135.373856 0.035278 
137.011749 0.005826 
137.057983 0.007284 
138.123184 0.038508 
END IONS

