BEGIN IONS
TITLE=Scan Number: 941
PEPMASS=211.08701
CHARGE=1+
COMPOUNDNAME=Pyocyanin
LIBRARYQUALITY=3
SMILES=CN1C2=CC=CC=C2N=C3C1=CC=CC3=O
INCHIKEY=YNCMLFHHXWETLD-UHFFFAOYSA-N
INCHI=
MSLEVEL=2
SOURCE_INSTRUMENT=LC-ESI-Orbitrap
FILENAME=f.quinnr/QuinnLabs/Pseudomonas_isolates/VVP3-2_MeOh.mzXML;
SEQ=*..*
NOTES=
IONMODE=Positive
ORGANISM=GNPS-LIBRARY
NAME=Pyocyanin M+H
SPECTRUMID=CCMSLIB00005436037
ACTIVATION=CID
INSTRUMENT=ion trap
SCANS=941
85.03965 439824.0 
91.140121 461676.0 
91.65683 259228.625 
92.049164 278218.53125 
98.021851 288131.96875 
113.034584 278181.875 
113.107338 631672.3125 
141.101944 1128239.875 
151.120605 295002.0625 
168.068253 6235180.0 
182.069229 301640.09375 
182.083542 559473.625 
183.091797 14151718.0 
193.076065 367381.84375 
196.063187 10727988.0 
211.086609 171405488.0 
END IONS

