BEGIN IONS
PEPMASS=405.264
CHARGE=1+
COMPOUNDNAME=Lovastatin
LIBRARYQUALITY=3
SMILES=N/A
INCHIKEY=PCZOHLXUXFIOCF-BXMDZJJMSA-N
INCHI=InChI=1S/C24H36O5/c1-5-15(3)24(27)29-21-11-14(2)10-17-7-6-16(4)20(23(17)21)9-8-19-12-18(25)13-22(26)28-19/h6-7,10,14-16,18-21,23,25H,5,8-9,11-13H2,1-4H3/t14-,15-,16-,18+,19+,20-,21-,23-/m0/s1
MSLEVEL=2
SOURCE_INSTRUMENT=N/A-ESI-QFT
FILENAME=library_mgf.mgf
SEQ=*..*
IONMODE=positive
ORGANISM=MONA
NAME=Lovastatin [M+H]+
PI=MoNA
DATACOLLECTOR=MoNA:VF-NPL-QEHF002557
PUBMED=N/A
SUBMITUSER=mwang87
TAGS=
SPECTRUMID=CCMSLIB00004693620
SCANS=2557
50.189869 0.013355 
50.735352 0.016998 
51.165287 0.015752 
51.347931 0.016407 
51.49662 0.013875 
51.59259 0.015393 
51.771988 0.020265 
52.047665 0.017791 
52.530235 0.013837 
53.282082 0.016604 
53.794277 0.015763 
53.926697 0.016119 
54.247036 0.019396 
54.765125 0.015607 
55.018593 0.403959 
55.054985 1.106573 
55.208893 0.019282 
55.35783 0.019026 
56.239784 0.015473 
56.611862 0.015897 
57.002926 0.013882 
57.070606 0.587887 
57.34544 0.019339 
58.644005 0.015624 
58.735668 0.019009 
59.179779 0.016574 
59.292576 0.017488 
59.844551 0.016821 
59.946064 0.0119 
60.02317 0.014447 
60.340298 0.013279 
62.086315 0.017041 
62.16444 0.01715 
62.227077 0.018379 
62.808594 0.017109 
63.453915 0.017969 
63.884426 0.021856 
65.459091 0.020532 
66.053459 0.014552 
67.054878 1.115495 
67.528099 0.019815 
67.560593 0.018088 
68.453117 0.020884 
68.997742 0.083864 
69.070518 2.299467 
69.44265 0.01516 
69.687187 0.020667 
69.8358 0.017626 
70.949036 0.017192 
71.013359 0.417687 
71.049744 0.274549 
71.246681 0.017513 
71.304146 0.018399 
71.624008 0.019727 
72.14637 0.017212 
72.220764 0.013573 
72.81263 0.011878 
72.877968 0.01655 
73.055397 0.021206 
73.77552 0.016228 
73.812531 0.017706 
74.104446 0.014527 
75.091537 0.021025 
75.545357 0.022797 
75.710281 0.013305 
76.025917 0.01525 
76.709686 0.017391 
77.040451 0.019721 
77.140762 0.011691 
77.590179 0.012297 
78.678398 0.016809 
79.054771 11.502048 
79.651443 0.017051 
80.058105 0.311978 
80.309883 0.013348 
81.034081 0.046733 
81.070419 11.871078 
81.166809 0.01279 
81.315704 0.019368 
81.885689 0.014103 
82.073746 0.450934 
83.0439 0.017289 
83.049652 5.743279 
83.086044 0.700038 
83.318909 0.017885 
83.974579 0.018429 
84.053032 0.022668 
85.065308 3.131068 
87.044655 0.023142 
88.360115 0.014533 
89.023766 1.892633 
89.841156 0.017998 
91.054741 0.606973 
91.938789 0.013844 
93.070297 3.847673 
93.318336 0.020866 
93.635162 0.016708 
94.073715 0.013934 
94.263893 0.020528 
94.655403 0.020763 
95.049507 0.056619 
95.085915 3.463848 
96.089409 0.039344 
96.255013 0.015828 
96.558426 0.017673 
96.7463 0.013073 
97.003136 0.020145 
97.065186 7.040351 
97.537376 0.016331 
97.552315 0.01262 
97.686981 0.019499 
97.881134 0.016938 
99.080681 0.097076 
99.092834 0.018391 
101.05632 0.019228 
101.05999 0.206941 
101.820984 0.017921 
103.320198 0.014944 
103.894333 0.015982 
104.028175 0.017294 
105.070183 7.802695 
106.073418 0.202492 
106.547783 0.014207 
107.049454 2.232144 
107.08197 0.111819 
107.085808 11.754357 
108.052765 0.01746 
108.089058 0.647623 
109.065025 0.953543 
109.101364 1.216109 
110.104782 0.014018 
111.080658 0.395972 
112.097092 0.015098 
113.015961 0.014987 
114.084503 0.014633 
114.088692 0.018254 
115.054695 0.018194 
117.070007 0.352327 
117.567268 0.015186 
119.048317 0.016997 
119.085663 4.363131 
120.088638 0.032848 
121.064789 0.063007 
121.101318 4.630644 
121.409653 0.013461 
121.549179 0.019664 
122.104515 0.180667 
122.112106 0.023264 
123.044342 0.020077 
123.080536 0.235753 
123.174698 0.018805 
124.009918 0.020478 
125.059799 2.827692 
126.508759 0.018069 
126.752876 0.014651 
126.955978 0.016469 
127.075371 0.627843 
127.884155 0.022119 
128.062378 0.142558 
129.069931 0.539838 
131.08046 0.0617 
131.08551 8.621672 
132.088821 0.551439 
133.064636 0.076967 
133.10112 3.81884 
134.104538 0.035378 
134.807938 0.021236 
135.080475 0.377598 
135.116776 0.666188 
135.22319 0.013077 
135.893463 0.015184 
136.516785 0.026754 
137.059692 0.020124 
137.095764 0.033382 
139.075058 0.189055 
141.069702 0.120242 
141.412933 0.021263 
141.843063 0.021328 
142.077805 0.023591 
143.070343 2.223714 
143.085464 13.365224 
143.091675 0.021662 
144.073761 0.014422 
144.088776 1.180104 
144.478745 0.013513 
145.101044 13.737277 
145.472153 0.019322 
145.545639 0.022764 
146.104401 1.525549 
146.882095 0.017024 
147.080276 0.270545 
147.116745 2.165408 
149.096024 0.464198 
151.075195 1.628504 
151.167587 0.013153 
152.329376 0.021798 
153.909592 0.019552 
155.085403 3.400607 
156.093567 0.229411 
156.785187 0.018698 
157.101089 12.53331 
157.108353 0.055031 
158.103958 0.920487 
158.109924 0.12527 
159.080383 0.037847 
159.116669 23.365204 
160.119873 2.435028 
160.609787 0.01526 
161.095779 0.073287 
161.132324 1.04049 
163.075134 0.213773 
163.084549 0.017954 
163.111618 1.165894 
165.090851 0.992472 
165.928802 0.020307 
167.085556 0.08294 
167.105835 0.013463 
168.092865 0.014978 
168.780823 0.013521 
169.101028 15.237871 
170.104431 1.806923 
170.726791 0.014294 
170.782059 0.015022 
171.116684 17.961636 
171.174683 0.016679 
172.11998 2.152075 
173.095871 0.132295 
173.132355 67.317955 
174.135742 8.427604 
175.110886 0.035502 
175.139343 0.056704 
176.772324 0.018363 
177.090805 0.528868 
177.127365 0.018082 
179.085648 0.046693 
179.106537 0.142747 
181.100983 2.130245 
182.104477 0.084999 
182.836594 0.018153 
183.11673 9.372661 
184.120026 1.197986 
185.095352 0.022872 
185.132401 4.744976 
186.135483 0.287224 
187.111618 0.730407 
187.147903 0.025565 
189.090805 0.620088 
189.126984 0.134257 
190.155975 0.023203 
191.106445 6.270782 
191.631531 0.019439 
191.681366 0.020058 
192.109787 0.435218 
192.318726 0.017839 
193.101074 2.030414 
195.116714 1.595529 
196.016724 0.016438 
196.121262 0.018269 
196.189026 0.019007 
197.132416 8.911061 
197.229813 0.024056 
198.13588 1.099594 
199.148026 100.0 
199.803635 0.015136 
200.151276 15.221871 
200.187195 0.015591 
201.017075 0.019278 
201.090408 0.022417 
201.127167 0.019584 
201.163635 18.692158 
202.166962 2.928664 
203.106644 0.353934 
204.108398 0.019371 
205.101547 0.068092 
205.122116 1.934286 
205.840134 0.015554 
206.124268 0.022228 
207.116653 4.188433 
208.120148 0.243203 
209.116745 0.041237 
209.132217 0.519372 
210.140198 0.018982 
211.111618 2.532429 
211.147934 5.450836 
211.942169 0.016455 
212.114853 0.022074 
212.151352 0.450208 
213.163483 0.467994 
213.981979 0.05016 
213.996582 0.546484 
214.005737 0.612556 
214.018921 0.333619 
214.021301 0.3354 
215.106308 0.128819 
215.179199 3.622056 
215.641235 0.024122 
216.182434 0.251367 
217.122086 0.136335 
219.116318 0.151252 
220.124283 0.368233 
221.132172 1.459546 
222.150848 0.014615 
222.913147 0.019689 
223.147964 12.927491 
223.160263 0.024273 
224.151245 2.0744 
225.127487 1.599991 
225.163513 58.429367 
226.130707 0.018904 
226.166962 10.23664 
227.170013 0.154229 
229.122025 2.943008 
230.125763 0.029322 
231.128769 0.013967 
232.204376 0.014914 
232.828918 0.020184 
233.082596 0.014376 
233.143127 0.01619 
234.140182 0.96452 
238.071396 0.018583 
239.142746 1.3434 
239.179138 12.271303 
240.182617 2.17869 
241.158295 0.016654 
241.195969 0.021114 
243.137558 0.719661 
243.174072 20.32799 
244.177399 3.356313 
244.861023 0.016837 
247.038483 0.021993 
247.958313 0.017935 
249.163452 14.925409 
250.16687 2.950639 
252.935745 0.018283 
254.457672 0.016017 
255.151184 0.014761 
256.853394 0.016635 
257.153168 0.108515 
257.188812 0.018076 
262.572662 0.017772 
266.513336 0.019071 
267.174011 7.415083 
267.217834 0.014783 
268.177399 1.420962 
279.095184 0.024575 
283.470123 0.018647 
284.457092 0.015054 
285.184418 8.555446 
286.187775 1.582275 
293.330414 0.013683 
294.301514 0.014969 
296.475464 0.020311 
303.194855 1.246596 
303.287048 0.016263 
303.963593 0.019898 
313.378693 0.017741 
319.314117 0.019653 
323.642731 0.015787 
324.190094 0.020317 
337.580994 0.018886 
340.152252 0.019397 
340.813232 0.020479 
340.942902 0.013157 
343.714417 0.018596 
345.684631 0.020182 
347.54068 0.016461 
347.687042 0.019144 
348.685425 0.021399 
354.890594 0.016857 
355.232513 0.017655 
365.463745 0.018922 
407.987701 0.017842 
417.235474 0.019777 
421.044159 0.020134 
429.220093 0.020369 
END IONS

