BEGIN IONS
PEPMASS=890.526
CHARGE=1+
COMPOUNDNAME=ABAMECTIN
LIBRARYQUALITY=3
SMILES=N/A
INCHIKEY=RRZXIRBKKLTSOM-XPNPUAGNSA-N
INCHI=InChI=1S/C48H72O14/c1-11-25(2)43-28(5)17-18-47(62-43)23-34-20-33(61-47)16-15-27(4)42(26(3)13-12-14-32-24-55-45-40(49)29(6)19-35(46(51)58-34)48(32,45)52)59-39-22-37(54-10)44(31(8)57-39)60-38-21-36(53-9)41(50)30(7)56-38/h12-15,17-19,25-26,28,30-31,33-45,49-50,52H,11,16,20-24H2,1-10H3/b13-12+,27-15+,32-14+/t25-,26-,28-,30-,31-,33+,34-,35-,36-,37-,38-,39-,40+,41-,42-,43+,44-,45+,47+,48+/m0/s1
MSLEVEL=2
SOURCE_INSTRUMENT=N/A-ESI-QFT
FILENAME=library_mgf.mgf
SEQ=*..*
IONMODE=positive
ORGANISM=MONA
NAME=ABAMECTIN [M+NH4]+
PI=MoNA
DATACOLLECTOR=MoNA:VF-NPL-QEHF028049
PUBMED=N/A
SUBMITUSER=mwang87
TAGS=
SPECTRUMID=CCMSLIB00004721630
SCANS=28049
62.126919 0.113317 
63.998978 0.121924 
64.353767 0.128434 
65.038696 0.964689 
65.437927 0.079012 
66.113571 0.153301 
66.264 0.048914 
66.810066 0.123779 
67.054314 28.37348 
67.229897 0.051045 
68.057556 0.23216 
68.376015 0.085151 
69.033531 100.0 
69.069939 4.144238 
69.076897 0.130568 
70.036896 0.99918 
70.521164 0.098271 
70.801353 0.138125 
71.049126 8.700531 
71.085472 0.24746 
71.331841 0.085027 
73.046799 1.785375 
73.064758 10.281474 
73.313293 0.043891 
73.554237 0.048085 
75.537277 0.128785 
75.546387 0.053946 
75.891579 0.067398 
75.970909 0.121615 
79.054199 11.098318 
79.36338 0.129811 
80.702347 0.117045 
81.033417 0.251417 
81.069878 24.821245 
81.651688 0.151902 
81.792397 0.167504 
81.998795 0.125207 
82.002419 0.125225 
82.072945 0.063271 
82.624763 0.140831 
83.049049 2.194512 
83.085426 0.770613 
84.07196 0.073114 
84.130852 0.138088 
85.028412 12.851636 
85.064735 9.861638 
85.101234 0.187893 
85.26432 0.118216 
86.988113 0.130999 
87.044014 10.691914 
87.725891 0.159258 
87.924225 0.055759 
88.223244 0.101822 
88.69075 0.084566 
89.05896 0.145337 
89.81073 0.168915 
91.054161 2.393217 
91.057266 1.62345 
91.511017 0.12191 
92.276329 0.043578 
93.069847 13.624416 
93.424896 0.126646 
93.972702 0.144102 
95.049103 86.927368 
95.085457 6.423845 
95.548676 0.138363 
95.84581 0.191693 
96.031807 0.188472 
96.052383 3.401514 
96.56675 0.104761 
96.742775 0.099195 
96.932938 0.169678 
97.028503 0.222906 
97.064796 20.291943 
97.101242 0.797795 
98.997757 0.062439 
99.080421 0.142156 
100.170944 0.123576 
100.682037 0.134103 
100.873405 0.084472 
101.059677 3.25891 
101.47567 0.0709 
102.359756 0.127645 
104.305534 0.074034 
105.069839 4.794181 
105.682724 0.066865 
106.403183 0.143386 
106.49691 0.126959 
106.918732 0.104743 
107.049088 1.975021 
107.085449 8.980155 
108.407455 0.111174 
108.818382 0.087225 
108.839111 0.047949 
109.060989 0.056734 
109.064758 12.741514 
109.101158 33.604111 
110.042679 0.124559 
110.067986 0.160643 
110.076042 0.112148 
110.104477 0.324491 
110.975288 6.315087 
110.978912 0.113602 
111.043915 0.951714 
111.080444 0.228639 
111.819077 0.132915 
113.059578 80.914253 
113.093262 0.076674 
113.857941 0.091567 
114.062981 2.545637 
114.578133 0.115242 
116.28421 0.108448 
116.592232 0.088701 
117.069786 1.421012 
119.085442 7.722263 
119.938126 0.081646 
120.082298 0.076182 
121.064644 3.730131 
121.101028 11.157211 
121.521706 0.187557 
121.645386 0.048453 
122.104286 0.131023 
123.080315 5.057342 
123.116737 56.193249 
124.068314 0.047637 
124.120117 2.465991 
125.059753 0.136177 
125.096146 0.058635 
126.241425 0.103138 
126.339172 0.147942 
127.075264 12.611448 
127.353058 0.107515 
127.390167 0.131926 
128.423325 0.137101 
128.985764 3.752014 
129.069016 0.190435 
130.282578 0.149216 
131.085342 2.247405 
131.450821 0.126605 
133.064468 0.322846 
133.101028 3.798676 
133.587997 0.122317 
135.043777 0.236245 
135.080231 6.090061 
135.116577 0.167735 
137.059662 1.175089 
137.096054 1.224491 
137.593826 0.135638 
140.50975 0.082809 
141.044739 0.052818 
143.001556 0.051833 
143.085419 3.757583 
143.866653 0.127166 
144.088486 0.057257 
144.303558 0.186205 
145.064529 0.970256 
145.085831 24.149042 
145.100937 2.275075 
145.959976 0.129279 
146.794678 0.044244 
146.898178 0.171272 
146.996429 0.384089 
147.080276 0.843111 
147.116699 0.392597 
148.202774 0.116865 
148.698074 0.09499 
149.096008 0.930184 
151.075317 0.520639 
151.111649 19.685095 
151.248016 0.127338 
151.730392 0.059289 
152.114929 0.364269 
152.879822 0.095045 
153.662567 0.089959 
155.086304 0.092782 
155.820953 0.047364 
157.101059 0.410652 
157.306946 0.118881 
157.577271 0.145561 
157.974075 0.116015 
158.532898 0.153486 
159.080063 0.329361 
159.116547 1.652234 
160.082993 0.094304 
160.298904 0.051782 
161.096085 0.299067 
161.132095 0.080967 
162.449402 0.043668 
163.075012 1.153023 
163.87825 0.045686 
164.293655 0.152792 
164.368515 0.077758 
165.090439 0.166972 
167.055222 0.406611 
168.172287 0.056839 
169.016785 1.075082 
169.101166 0.499566 
169.122238 5.756828 
169.292831 0.062232 
169.304611 0.13473 
169.345963 0.122523 
169.689484 0.139638 
170.12587 0.0816 
171.116669 4.359536 
171.679443 0.140584 
173.095505 0.184159 
175.14798 0.610444 
177.221039 0.110144 
178.307907 0.183661 
179.203461 0.053584 
179.29982 0.13906 
180.472397 0.049804 
183.032959 0.152594 
183.481827 0.118952 
183.93692 0.067918 
186.725143 0.119059 
187.027573 0.465777 
187.111832 0.172363 
187.303482 0.053622 
188.008286 0.190894 
190.50206 0.045808 
192.544128 0.163196 
193.158539 2.592446 
194.459213 0.158233 
195.032562 0.129873 
197.096268 0.118552 
198.859528 0.158104 
199.111679 3.426069 
200.684875 0.152 
201.290909 0.155693 
208.162369 0.141535 
208.286957 0.161979 
208.365875 0.152117 
212.087479 0.071661 
212.098724 0.06898 
213.499802 0.144353 
213.868729 0.058204 
219.620148 0.151786 
221.153458 0.22638 
225.416321 0.165653 
226.831665 0.140587 
227.55864 0.064469 
232.356354 0.137366 
233.396439 0.069096 
236.083511 0.184467 
237.910797 0.12487 
238.572083 0.152517 
238.863556 0.105432 
242.33725 0.104032 
245.117218 1.052318 
251.312576 0.146881 
251.743301 0.160458 
253.559525 0.051277 
255.067795 0.154832 
257.08371 0.062919 
260.311096 0.133785 
261.111664 0.1958 
263.059113 0.161891 
263.488434 0.076018 
265.011475 0.057558 
265.164703 0.129116 
266.587555 0.057455 
269.050873 0.069157 
272.313812 0.147915 
273.079193 1.018631 
275.095306 1.303456 
275.359558 0.075381 
277.110657 1.106509 
277.645996 0.051981 
280.642181 0.142698 
283.410828 0.12406 
287.774933 0.10377 
288.115234 0.050407 
288.206635 0.192796 
288.225983 0.065254 
288.688721 0.099059 
293.105255 0.057439 
295.121094 1.278127 
299.060852 0.057727 
299.087677 0.061098 
303.089752 0.056034 
304.166321 0.351379 
304.189484 0.195591 
305.129059 0.070513 
311.489197 0.05826 
313.970123 0.131686 
328.513214 0.115014 
332.097321 0.170519 
341.47052 0.1578 
347.147278 0.105597 
347.781158 0.122104 
360.319 0.050013 
360.838989 0.480303 
375.325439 0.048732 
380.552032 0.158445 
381.777954 0.072025 
384.63324 0.1363 
401.330872 0.126283 
404.454834 0.109986 
415.881195 0.09924 
419.741821 0.126617 
419.851501 0.683174 
424.765411 0.05719 
427.030396 0.134585 
427.712219 0.115646 
434.237579 0.15626 
441.441711 0.090126 
451.345886 0.144141 
454.196167 0.13686 
466.922028 0.119381 
485.978271 0.140106 
487.55957 0.12057 
497.429657 0.1312 
505.800903 0.08246 
506.981995 0.045803 
508.030365 0.160468 
520.740173 0.137968 
523.112244 0.161443 
559.287231 0.154292 
561.989319 0.076186 
565.542236 0.094173 
577.705872 0.067966 
598.255859 0.048496 
613.621582 0.13774 
616.446899 0.168475 
618.968933 0.140801 
630.187073 0.147715 
635.762573 0.174268 
641.300842 0.101419 
705.755798 0.120721 
708.106201 0.156483 
708.231384 0.172903 
708.375977 0.236526 
708.822266 0.351454 
708.958252 0.238568 
726.127747 0.16816 
744.867737 0.198365 
765.116455 0.092135 
790.697754 0.058315 
827.926453 0.067182 
856.061646 0.208186 
859.950989 0.20498 
872.887024 0.149525 
END IONS

