BEGIN IONS
PEPMASS=449.375
CHARGE=1+
COMPOUNDNAME=(1R,3aR,5aR,5bR,9S,11aR)-3a,5a,5b,8,8,11a-hexamethyl-1-prop-1-en-2-yl-1,2,3,4,5,6,7,7a,9,10,11,11b,12,13,13a,13b-hexadecahydrocyclopenta[a]chrysen-9-ol
LIBRARYQUALITY=3
SMILES=N/A
INCHIKEY=MQYXUWHLBZFQQO-KIIHVYTKSA-N
INCHI=InChI=1S/C30H50O/c1-19(2)20-11-14-27(5)17-18-29(7)21(25(20)27)9-10-23-28(6)15-13-24(31)26(3,4)22(28)12-16-30(23,29)8/h20-25,31H,1,9-18H2,2-8H3/t20-,21?,22?,23?,24-,25?,27+,28-,29+,30+/m0/s1
MSLEVEL=2
SOURCE_INSTRUMENT=N/A-ESI-QFT
FILENAME=library_mgf.mgf
SEQ=*..*
IONMODE=positive
ORGANISM=MONA
NAME=(1R,3aR,5aR,5bR,9S,11aR)-3a,5a,5b,8,8,11a-hexamethyl-1-prop-1-en-2-yl-1,2,3,4,5,6,7,7a,9,10,11,11b,12,13,13a,13b-hexadecahydrocyclopenta[a]chrysen-9-ol [M+Na]+
PI=MoNA
DATACOLLECTOR=MoNA:VF-NPL-QEHF009281
PUBMED=N/A
SUBMITUSER=mwang87
TAGS=
SPECTRUMID=CCMSLIB00004700344
SCANS=9281
51.496658 0.469957 
51.620644 0.475627 
53.197456 0.565152 
55.018745 0.512626 
55.055084 9.460268 
55.116245 0.453811 
55.707455 0.442542 
55.743763 0.502753 
55.935246 0.799565 
56.05032 1.787182 
56.427174 0.422815 
57.034348 2.288762 
57.070721 24.652662 
57.321598 0.443619 
58.065872 0.653028 
58.165894 0.429822 
59.049957 14.499973 
59.051605 0.440872 
59.968407 0.495733 
60.045158 0.509907 
60.829559 0.508424 
61.011448 56.280746 
61.409035 0.413574 
61.676567 0.427802 
62.019268 46.087769 
62.982517 13.402643 
63.007244 1.755017 
63.022598 0.618555 
63.027119 0.593964 
63.884789 0.445202 
63.998573 1.063602 
64.01503 3.508368 
65.779373 0.40636 
67.055008 10.808678 
67.130989 0.472519 
68.141808 0.417354 
68.257652 0.401821 
69.034264 1.54224 
69.070625 12.813339 
69.972816 0.459431 
70.065895 5.810684 
71.049927 2.093422 
71.086266 16.541925 
72.56559 0.39862 
72.937927 1.450017 
73.029091 1.03298 
73.047508 11.886269 
73.065514 1.80284 
74.014984 0.434372 
74.047096 0.544239 
74.097282 0.487276 
74.425415 0.471673 
75.026962 0.595911 
75.04451 1.809408 
78.291672 0.451488 
78.956337 0.770095 
79.021912 41.772495 
79.054962 3.467932 
80.02507 0.390251 
80.254692 0.406693 
81.07058 20.869843 
81.463196 0.399704 
82.335472 0.392191 
83.04985 2.812859 
83.086205 9.009803 
84.081612 0.383146 
84.292717 0.493872 
85.029114 0.627155 
85.065445 2.575166 
85.101852 7.013451 
85.489273 0.421191 
87.04467 32.348301 
87.216682 0.390106 
88.048019 1.305169 
88.076561 0.619847 
88.378342 0.483092 
88.81144 0.478527 
89.06031 30.679846 
90.948242 2.187148 
91.054901 4.72214 
91.057938 41.896729 
92.057587 3.610347 
92.061188 2.497112 
92.975136 0.707223 
92.983284 2.996662 
93.037407 5.890958 
93.054779 7.383051 
93.070435 10.469348 
94.554596 0.469986 
94.930031 0.456543 
95.01664 0.474245 
95.08606 19.45653 
96.08152 0.62825 
97.013191 1.07031 
97.065392 1.554276 
97.076759 0.509772 
97.101685 4.348698 
97.421524 0.5534 
98.096962 35.301483 
98.164848 0.460847 
99.044731 1.108063 
101.003761 4.429748 
101.060242 2.583632 
101.307838 0.451459 
103.039391 1.291257 
103.394897 0.425839 
105.037239 0.541646 
105.070312 4.336454 
106.011253 0.467691 
106.320862 0.443118 
107.086044 10.508627 
109.101585 9.028786 
110.993668 2.903588 
111.04454 1.073778 
111.080765 2.641999 
112.240685 0.443977 
112.430016 0.444939 
114.091827 4.407004 
117.05497 3.087596 
117.4571 0.453898 
119.085907 5.82175 
121.065125 3.357942 
121.10144 8.839595 
122.096298 0.464298 
123.080437 0.618355 
123.117104 3.639252 
124.964607 2.706938 
125.096352 1.078196 
125.936188 4.754433 
131.07048 1.056166 
131.085846 1.161175 
132.021255 0.499323 
132.958557 0.534054 
133.064835 0.578916 
133.086075 4.169631 
133.101364 5.493116 
134.920227 0.537467 
134.956451 3.169526 
135.08046 2.873753 
135.117096 4.367135 
136.062622 0.420516 
136.674866 0.547117 
137.059891 0.464667 
137.096329 0.727609 
138.022278 0.473067 
138.127731 1.358288 
138.172882 0.48181 
138.951004 0.48914 
140.904465 0.452847 
140.959518 6.872858 
141.127548 0.503691 
142.666931 0.468127 
145.101318 2.755709 
145.486771 0.536346 
146.33873 0.505226 
146.975052 1.529045 
147.080795 0.529084 
147.116867 2.954482 
147.97493 0.670219 
148.925858 7.967282 
148.955795 0.575237 
148.97197 32.13208 
149.023315 1.642441 
149.059906 1.759809 
149.132523 1.085408 
149.841827 0.451557 
149.954422 1.159971 
150.951157 41.955936 
150.96817 0.703599 
152.922592 3.764656 
152.929703 0.437285 
152.966812 2.823653 
153.213745 0.537805 
153.802612 0.405177 
153.93808 0.631169 
153.959549 1.152189 
155.070206 2.12927 
156.138458 59.44754 
156.954269 1.760575 
157.122452 0.464047 
157.141556 1.527686 
159.11705 2.311438 
161.09642 0.846995 
162.951508 0.548605 
163.111938 0.515469 
163.148315 1.223561 
164.920685 29.827574 
164.967117 10.579751 
165.170746 0.480593 
166.916 0.677254 
166.928299 4.08731 
166.966812 1.046199 
166.975327 0.508742 
166.982468 5.865862 
167.055527 7.091209 
167.933594 0.508305 
168.138474 3.983306 
168.896408 0.682056 
168.908463 0.626141 
168.917313 0.533303 
168.961761 19.730286 
169.052231 1.8171 
170.952545 0.714569 
170.962875 0.545542 
172.931778 4.165813 
173.196976 0.422604 
175.14769 0.493821 
176.967667 1.187824 
178.947296 0.542649 
179.94725 3.009352 
180.894272 3.825948 
180.944016 31.675941 
180.962265 0.888838 
182.531403 0.552895 
182.915344 1.550645 
182.923431 1.231705 
182.94426 3.143956 
182.977631 11.844385 
183.624527 0.571836 
183.931519 3.17271 
183.949371 0.51751 
184.939148 5.686378 
185.153748 27.855421 
185.311188 0.450631 
185.964233 1.66372 
186.927963 4.244368 
186.936401 0.708393 
189.163895 2.139127 
191.964996 0.502033 
192.944168 0.545414 
192.961823 25.400331 
193.964401 0.558955 
194.960083 0.558753 
196.939072 6.838119 
196.958847 0.57983 
197.666809 0.460847 
197.892593 3.339446 
197.947662 0.607518 
197.957077 2.54978 
198.900589 15.076134 
198.954666 29.374294 
198.977432 0.540333 
198.995407 0.43614 
199.889481 0.464724 
201.9422 1.187746 
204.913223 3.592133 
204.962418 3.597836 
205.962891 1.242608 
205.987747 1.360912 
206.977997 4.015631 
207.174469 1.295745 
208.884033 1.588914 
209.891052 0.649338 
210.185501 6.142624 
210.954605 0.817806 
210.972397 16.384787 
211.919785 1.047382 
212.916199 10.798547 
212.933746 8.165879 
212.970093 2.797714 
213.606415 19.774405 
213.905899 0.668736 
214.894897 0.689514 
214.914734 0.986177 
214.93483 0.454654 
215.08931 1.303268 
215.903137 2.016313 
216.856277 0.539173 
216.911179 2.558747 
216.950226 0.612724 
219.174545 9.574974 
220.903793 1.309568 
220.945923 0.861288 
222.899063 10.628717 
225.043152 1.273178 
226.0439 1.102135 
226.931458 3.882472 
227.04068 0.578984 
228.911911 0.570801 
228.929108 6.093493 
228.964951 1.730102 
229.896317 2.541159 
230.908844 0.542716 
230.926392 0.917986 
230.944489 4.80516 
231.915955 10.139902 
232.883896 0.892113 
232.926224 0.581265 
233.891663 5.384197 
234.899826 0.979953 
238.914001 2.322678 
238.968536 1.522125 
240.909454 19.304714 
242.944885 1.123003 
244.888275 4.162549 
244.905991 18.660879 
244.92276 2.783058 
244.943954 1.116686 
244.959824 1.422188 
246.93959 12.085954 
247.90715 2.048129 
248.936798 2.909386 
250.877457 0.517249 
250.893967 11.89884 
251.894455 0.597615 
251.906769 0.621725 
253.903107 0.72181 
253.91745 1.10617 
254.861038 2.771201 
258.858368 0.580791 
258.940216 1.391983 
260.95459 1.436823 
261.920013 1.127251 
262.91629 12.52877 
262.933319 2.116704 
263.901031 0.741433 
264.909271 10.748755 
266.909607 1.156983 
268.905823 3.178409 
270.052704 5.906324 
270.867035 1.861827 
271.055725 17.032862 
271.867493 0.470307 
274.915497 0.525641 
275.902191 5.569528 
276.876984 0.786061 
277.917175 1.457845 
279.917358 0.56463 
280.903229 0.530912 
281.03952 1.08287 
281.91217 8.950539 
282.920074 5.709579 
283.263245 1.435068 
283.891968 0.821091 
284.919647 1.133801 
285.075897 42.003044 
286.079224 100.0 
286.861725 0.972058 
286.893585 0.808465 
286.915314 3.053562 
287.081726 13.598638 
288.911224 2.367499 
291.897186 1.89612 
292.906525 0.453064 
294.903412 1.851045 
295.873932 1.439588 
295.927826 5.539296 
299.055145 2.820256 
306.92038 12.284157 
308.920593 1.818747 
309.920227 0.881962 
310.916718 3.036293 
311.867798 0.740538 
312.876251 5.357113 
313.876984 8.76332 
314.874603 4.050855 
317.841095 3.742733 
319.836456 8.092949 
323.83197 2.432323 
324.931305 0.854101 
327.863495 0.77356 
329.066559 0.647915 
331.895172 0.920734 
334.843689 7.687523 
335.166046 0.996323 
335.850647 0.520073 
336.83963 10.356505 
337.1828 0.89597 
337.846741 1.698163 
344.9758 2.081834 
348.844513 1.383403 
350.943726 0.568453 
353.842926 0.577625 
354.850494 0.856825 
356.850098 0.569497 
357.209076 1.16325 
358.843658 35.643471 
359.847137 0.936094 
360.83905 46.980438 
363.238556 0.518871 
364.833862 6.713259 
365.840057 0.689478 
367.840424 0.544433 
369.836548 5.799995 
374.856049 1.057639 
376.855347 11.957432 
378.850098 13.061426 
381.836884 1.454967 
382.747314 0.540136 
382.86673 1.28412 
383.853333 4.105187 
384.858978 1.348279 
385.851562 0.609065 
387.845764 2.21853 
388.83493 9.799525 
389.835968 0.618955 
392.865021 0.512291 
401.305939 1.074057 
402.963409 2.193514 
405.092621 0.660013 
406.844543 47.135838 
407.846497 12.410821 
408.857391 0.682748 
420.860352 2.159919 
424.855469 2.880222 
427.303741 0.59371 
448.295166 1.528151 
448.393433 0.541116 
449.287506 9.990095 
450.288361 1.330651 
451.214966 6.011273 
END IONS

