BEGIN IONS
TITLE=Scan Number: 1
PEPMASS=452.11099
CHARGE=1+
COMPOUNDNAME=Narcotine
LIBRARYQUALITY=3
SMILES=CN1[C@]([C@]2([H])C(C=CC(OC)=C3OC)=C3C(O2)=O)([H])C4=C(OC)C5=C(OCO5)C=C4CC1
INCHIKEY=AKNNEGZIBPJZJG-MSOLQXFVSA-N
INCHI=InChI=1S/C22H23NO7/c1-23-8-7-11-9-14-20(29-10-28-14)21(27-4)15(11)17(23)18-12-5-6-13(25-2)19(26-3)16(12)22(24)30-18/h5-6,9,17-18H,7-8,10H2,1-4H3/t17-,18+/m1/s1
MSLEVEL=2
SOURCE_INSTRUMENT=DI-ESI-qTof
FILENAME=f.10mauriz/5_br_pos_K_25eV.mgf;
SEQ=*..*
NOTES=
IONMODE=Positive
ORGANISM=GNPS-LIBRARY
NAME=Narcotine M+K
SPECTRUMID=CCMSLIB00000424773
ACTIVATION=CID
INSTRUMENT=ion trap
SCANS=1
205.072556 552.0 
209.846664 118.0 
220.096817 22921.0 
220.433914 110.0 
221.098328 1542.0 
226.058228 192.0 
232.007721 257.0 
233.021164 254.0 
422.095337 471.0 
429.018127 139.0 
452.110748 1164.0 
453.110809 160.0 
765.746948 319.0 
1081.189087 120.0 
1259.25708 139.0 
END IONS

