BEGIN IONS
TITLE=Scan Number: 3
PEPMASS=601.0
CHARGE=1+
COMPOUNDNAME=Deferrioxamine E
LIBRARYQUALITY=3
SMILES=O=C(CCC(N(O)CCCCCN([H])C(CC1)=O)=O)N([H])CCCCCN(O)C(CCC(N([H])CCCCCN(O)C1=O)=O)=O
INCHIKEY=NHKCCADZVLTPPO-UHFFFAOYSA-N
INCHI=
MSLEVEL=2
SOURCE_INSTRUMENT=LC-ESI-Hybrid FT
FILENAME=f.amcaraballor/20140930_Rice1_RLe7vsFLe4_LTQ-FT.mzXML/20140930_R1-A7-A-e2_IT2FT.mzXML;
SEQ=*..*
NOTES=
IONMODE=Positive
ORGANISM=GNPS-LIBRARY
NAME=Deferrioxamine E M+H
SPECTRUMID=CCMSLIB00000223993
ACTIVATION=CID
INSTRUMENT=ion trap
SCANS=3
138.117783 97.23317 
138.999054 15.863671 
146.025681 7.578216 
154.101486 301.691467 
155.213867 41.408367 
156.998184 21.186117 
159.248459 55.891415 
160.774704 9.417375 
162.156204 10.851685 
164.270416 13.684998 
165.260239 416.723328 
166.076752 2059.223389 
167.197754 355.100952 
168.195251 275.674622 
171.012726 8.355718 
172.724762 10.524704 
173.434723 12.281654 
175.103424 302.234039 
176.227768 39.618721 
181.16745 38.462658 
182.149994 41.298317 
183.10228 762.732788 
184.263794 188.872406 
185.223724 752.346191 
186.09082 67.159691 
187.189636 5.363624 
188.03125 10.331348 
190.711838 5.801969 
192.998413 6.462401 
197.145996 6.939789 
200.051514 78.738144 
201.120361 6498.421875 
202.109039 703.028076 
203.238373 207.148987 
204.22876 28.413929 
205.208557 29.592382 
207.24646 9.244919 
211.354919 61.304104 
212.210724 63.597878 
213.194397 116.400047 
214.21048 28.476118 
215.187378 36.650032 
215.863678 18.46022 
217.123352 12.084799 
218.220917 143.754684 
219.155029 1978.863159 
220.101135 74.459946 
221.095337 24.449583 
223.382111 7.999607 
224.454315 5.377329 
228.560303 11.429172 
229.437378 7.659552 
230.311005 15.799463 
231.104797 25.765596 
232.457184 74.24765 
233.060806 238.370224 
234.085907 80.801918 
235.836334 7.483396 
239.374329 27.260893 
240.318024 38.972359 
241.243073 10.199565 
243.378693 7.979878 
248.396027 17.472229 
249.364349 35.041626 
251.330002 126.74884 
252.200394 23.335106 
252.909714 25.920561 
257.084717 10.37039 
258.179291 12.176744 
261.348938 28.426229 
262.060852 59.99144 
265.239838 95.189514 
267.173523 1214.102051 
268.24884 115.931488 
271.235443 38.050571 
275.220276 24.246777 
276.255432 7.127522 
277.204773 17.062386 
279.461273 6.780245 
283.143738 3256.900879 
284.249084 1031.099365 
285.315674 477.976257 
286.133575 5.934048 
287.35025 17.797979 
288.649994 16.654202 
290.084015 49.075638 
291.076111 437.54126 
292.07019 72.465996 
293.433472 19.70927 
294.082336 25.410862 
295.292297 11.997473 
297.583923 15.706694 
298.919159 25.171825 
300.407806 580.061279 
301.199036 4031.012451 
302.237061 563.050293 
303.361938 1238.734131 
304.116943 59.569084 
305.320923 24.958353 
306.034973 70.966003 
307.34082 6.952165 
309.303497 97.198387 
310.036224 6.119446 
311.299377 25.522615 
312.485046 4.48378 
313.524109 21.807148 
316.166931 35.956589 
317.258392 43.146152 
318.422058 250.690582 
319.38382 2533.693848 
320.393311 259.93103 
321.376221 54.627941 
323.202332 23.109978 
325.435486 43.267273 
327.164581 66.779099 
328.312347 59.99004 
329.242371 66.495567 
330.430878 5.309859 
331.320923 37.462078 
332.164276 5.886618 
334.396484 40.350136 
335.54834 77.974449 
336.301086 7.064768 
337.443573 22.510242 
339.212524 23.404205 
340.278137 20.005011 
341.628601 45.7616 
342.320251 12.938229 
343.17157 14.649498 
344.623474 19.952385 
345.366669 39.964035 
347.101746 12.298196 
349.012726 393.072784 
349.841614 38.097851 
351.237488 9.738667 
352.955078 20.872372 
353.96994 10.289551 
355.405487 328.371857 
357.176147 18.218184 
358.048096 9.764196 
360.297485 13.701667 
361.371643 237.062592 
362.302002 73.355286 
365.210693 170.899475 
366.254089 349.923737 
367.330505 384.727173 
368.470764 99.668938 
369.170898 23.483662 
370.460663 12.902621 
371.36142 105.795929 
372.236206 41.822708 
373.328674 89.957405 
377.399261 37.64193 
378.295288 17.459867 
379.341034 43.268208 
381.248657 224.228592 
382.708954 134.765778 
383.369873 822.959412 
385.255768 13158.101562 
386.115814 129.461517 
387.060394 72.208275 
387.998962 11.611977 
389.509949 12.714055 
390.307953 64.757011 
391.241455 24.237822 
392.587433 76.291763 
395.03717 36.676819 
396.176941 27.54184 
397.136932 61.499748 
399.544373 90.524567 
401.261108 65423.8125 
402.259735 12915.074219 
403.372589 2257.280029 
404.329834 145.509277 
405.32666 55.583466 
406.986542 312.542114 
408.323181 548.637939 
409.182495 414.788971 
410.24472 191.261139 
411.333679 116.185661 
412.258301 19.556181 
413.575195 26.139524 
414.902191 7.735542 
415.523224 55.578457 
416.475952 33.581779 
417.696167 215.216995 
418.645416 727.270874 
419.302643 13636.879883 
420.260742 225.524399 
421.07785 65.753639 
422.099213 9.941791 
423.387451 167.153442 
424.191956 105.323586 
425.346924 90.645645 
426.562164 43.928101 
427.550598 96.87944 
428.496582 22.064835 
429.504303 14.377119 
431.471344 61.069546 
434.464935 9.223683 
436.188965 55.913311 
437.322113 109.120636 
438.22876 61.539368 
439.369324 22.505341 
440.504608 13.452834 
441.283722 68.991684 
442.501312 81.394577 
444.508392 32.823475 
447.184845 17.167294 
449.286224 7.193537 
451.347107 54.902184 
452.356201 19.523914 
453.433838 33.436398 
454.838318 79.278259 
456.039764 42.612465 
457.383148 52.639454 
459.311279 57.365818 
460.56366 20.216995 
462.627869 55.454483 
463.440887 65.941399 
464.124695 29.025896 
465.078369 169.931442 
466.426575 78.462463 
467.43869 26.364611 
468.331787 95.964767 
469.423187 40.444496 
470.578125 95.43145 
471.365082 30.202511 
472.842651 114.192528 
473.48407 15.452369 
475.589294 60.979279 
477.336365 6.46774 
478.371948 15.226789 
478.991058 18.125145 
480.177612 163.459732 
480.988495 81.704926 
483.235809 2677.143555 
484.392822 862.679138 
485.33847 204.418976 
486.383881 67.195053 
487.345825 32.875694 
488.258667 51.522312 
489.47287 70.45256 
490.479309 61.684189 
491.726868 62.016888 
493.502899 56.092228 
494.664124 38.474533 
495.538422 118.596291 
496.617249 60.677273 
497.623688 54.473885 
500.259216 13409.813477 
501.272247 5865.353516 
502.336426 954.039795 
503.415222 11369.40625 
504.501892 117.245865 
506.245972 26.552618 
507.73114 70.690369 
510.239624 142.199463 
511.212677 103.281006 
512.303345 31.695744 
513.589355 62.474659 
514.260925 27.858007 
515.206909 139.401749 
516.304321 1211.339355 
517.371338 460.858734 
518.302612 1429.319092 
519.419861 274.593811 
520.458069 36.373959 
521.597656 95.435226 
522.430298 16.393938 
523.272949 56.187851 
524.10498 80.626343 
525.275757 21.950132 
526.384644 81.061539 
527.494873 509.604248 
528.277588 127.038063 
529.380798 170.818634 
530.440552 164.395294 
531.233765 163.879883 
532.505066 45.763111 
533.736084 52.472019 
534.993591 88.541023 
536.719971 12.028912 
539.469299 61.11158 
540.735229 138.584045 
541.426636 49.375698 
543.807739 130.03862 
544.557739 52.326794 
545.473083 62.477505 
546.485474 86.053871 
547.330505 12.449248 
549.790405 98.538071 
550.642517 47.456497 
551.932495 47.818676 
552.691772 56.734364 
554.217163 122.096863 
555.247681 181.068192 
555.97998 141.149887 
556.740295 171.419891 
557.750366 85.064293 
558.806763 304.680237 
560.113037 170.878387 
560.99646 16.554874 
561.701416 16.944345 
562.499695 43.967693 
563.466309 46.751114 
564.476562 130.647018 
565.369385 188.355225 
566.438049 82.062027 
567.465942 142.228668 
568.26416 60.340736 
569.097351 192.79187 
570.258423 73.903 
570.988037 146.799637 
571.852417 67.45433 
573.359375 147.490143 
574.206299 43.52747 
575.202026 72.946854 
576.276123 69.716949 
577.324158 29.07613 
578.529358 61.327988 
579.388672 134.527359 
581.264404 519.265381 
582.234375 544.679321 
583.364685 3796.95459 
584.363464 1911.710571 
585.461914 1046.845093 
586.461365 129.30072 
587.348267 143.456848 
589.385742 97.772949 
590.049805 171.313522 
591.775635 56.528397 
608.065674 11.204131 
610.385315 9.844761 
END IONS

