BEGIN IONS
PEPMASS=257.046
CHARGE=1+
COMPOUNDNAME=norlichexanthone
LIBRARYQUALITY=3
SMILES=N/A
INCHIKEY=AQZHBCDRWFMXIN-UHFFFAOYSA-N
INCHI=InChI=1S/C14H10O5/c1-6-2-7(15)4-10-12(6)14(18)13-9(17)3-8(16)5-11(13)19-10/h2-5,15-17H,1H3
MSLEVEL=2
SOURCE_INSTRUMENT=N/A-ESI-QFT
FILENAME=library_mgf.mgf
SEQ=*..*
IONMODE=negative
ORGANISM=MONA
NAME=norlichexanthone [M-H]-
PI=MoNA
DATACOLLECTOR=MoNA:VF-NPL-QEHF017947
PUBMED=N/A
SUBMITUSER=mwang87
TAGS=
SPECTRUMID=CCMSLIB00004709010
SCANS=17947
50.480453 0.00603 
50.923656 0.005618 
50.926964 0.005063 
52.458019 0.005353 
53.039684 0.004966 
53.932083 0.006751 
54.043999 0.00524 
54.143951 0.005109 
54.210251 0.004547 
54.762569 0.004711 
55.108887 0.004877 
56.576721 0.004824 
57.921856 0.004405 
58.015064 0.004697 
58.290726 0.004789 
58.373886 0.005226 
58.711109 0.005488 
58.873478 0.004293 
59.147621 0.006243 
59.496647 0.004832 
59.637848 0.00571 
59.707333 0.006406 
59.987457 0.005347 
60.530571 0.005408 
60.555458 0.00589 
60.689571 0.004058 
60.946915 0.004595 
61.627373 0.005088 
62.442429 0.00451 
62.81723 0.005608 
62.837341 0.005247 
63.78178 0.005613 
64.198402 0.005457 
64.231438 0.007005 
65.03495 0.004489 
65.170982 0.005805 
65.581787 0.006637 
66.592773 0.004829 
68.161896 0.005653 
68.811676 0.006164 
69.627518 0.005643 
69.673615 0.004773 
69.811195 0.00402 
71.094124 0.005951 
71.229439 0.003937 
71.796631 0.005119 
72.623085 0.006139 
72.647446 0.005925 
73.242767 0.005233 
73.414497 0.00581 
73.72715 0.005099 
73.7808 0.005102 
73.970078 0.005742 
74.039093 0.005997 
75.872177 0.00704 
77.441971 0.004925 
78.218254 0.00627 
78.661911 0.004991 
80.509155 0.006229 
80.940346 0.005271 
81.557014 0.005943 
82.054428 0.004404 
82.334595 0.004377 
82.882271 0.004726 
82.914436 0.005105 
83.031952 0.005422 
83.066223 0.006079 
83.66259 0.006548 
84.671532 0.004937 
84.92289 0.005099 
86.636185 0.004852 
86.93103 0.004875 
87.047668 0.004998 
89.277969 0.005984 
90.570778 0.004746 
91.094337 0.005873 
91.529358 0.00594 
92.320877 0.004162 
92.405472 0.006342 
93.785301 0.005502 
95.974037 0.006565 
96.901695 0.005078 
99.265114 0.00525 
99.333443 0.005291 
103.802307 0.006062 
104.414787 0.004652 
104.426079 0.005388 
104.898209 0.004752 
105.309555 0.00605 
105.362251 0.005788 
105.578606 0.005392 
105.996956 0.00497 
106.187088 0.00592 
106.262329 0.00643 
107.887032 0.005769 
108.583046 0.006033 
112.607201 0.004486 
113.580421 0.005781 
114.796753 0.006046 
116.231911 0.005483 
119.041481 0.004673 
120.235619 0.004784 
121.274963 0.006521 
122.392693 0.004972 
124.329254 0.005843 
126.765167 0.004497 
128.840515 0.004711 
130.540527 0.005882 
133.845535 0.004978 
138.317825 0.005467 
138.970779 0.004878 
139.411713 0.004586 
141.339142 0.006013 
144.623383 0.006451 
145.516296 0.005807 
147.025528 0.004558 
147.500717 0.005046 
149.288162 0.005922 
149.381378 0.004322 
149.598999 0.004478 
151.606949 0.00453 
152.050217 0.006847 
152.138626 0.005525 
155.287842 0.005486 
155.845108 0.005443 
156.989105 0.00627 
158.712662 0.005005 
162.654495 0.005536 
162.879684 0.005742 
164.066833 0.004339 
172.299286 0.005024 
173.770554 0.006344 
174.527039 0.00551 
176.714508 0.005143 
180.518936 0.007496 
181.651138 0.004302 
183.802292 0.005697 
184.462967 0.005063 
185.05954 0.012493 
186.739578 0.006386 
190.336487 0.005421 
192.550842 0.004937 
194.085938 0.006672 
195.233582 0.006551 
195.393433 0.005908 
195.606155 0.005763 
200.709305 0.005811 
202.924118 0.005823 
205.571014 0.006527 
205.758026 0.005632 
205.954224 0.005331 
206.254547 0.00641 
208.552917 0.006159 
209.064636 0.00513 
212.155563 0.006437 
213.055161 1.564109 
214.05867 0.140039 
215.034668 0.242979 
216.057266 0.124413 
216.069901 0.134187 
220.294479 0.00716 
221.760986 0.006118 
225.992538 0.006939 
229.050278 0.13588 
229.431244 0.007973 
236.18898 0.005461 
242.02095 0.026683 
255.23288 1.444591 
255.659454 0.006242 
255.915955 0.007066 
256.037994 0.049524 
256.236084 0.350684 
257.020752 0.037303 
257.045288 100.0 
258.048737 15.231839 
259.024689 0.072134 
259.050598 0.873014 
259.245361 0.00581 
266.670898 0.006564 
272.038574 0.00707 
END IONS

