BEGIN IONS
PEPMASS=177.016
CHARGE=1+
COMPOUNDNAME=Patulin
LIBRARYQUALITY=3
SMILES=N/A
INCHIKEY=ZRWPUFFVAOMMNM-UHFFFAOYSA-N
INCHI=InChI=1S/C7H6O4/c8-6-3-4-5(11-6)1-2-10-7(4)9/h1,3,7,9H,2H2
MSLEVEL=2
SOURCE_INSTRUMENT=N/A-ESI-QFT
FILENAME=library_mgf.mgf
SEQ=*..*
IONMODE=positive
ORGANISM=MONA
NAME=Patulin [M+Na]+
PI=MoNA
DATACOLLECTOR=MoNA:VF-NPL-QEHF025933
PUBMED=N/A
SUBMITUSER=mwang87
TAGS=
SPECTRUMID=CCMSLIB00004716996
SCANS=25933
50.078171 0.01359 
50.342564 0.013833 
50.739979 0.008585 
51.14484 0.004274 
51.15567 0.007076 
51.29937 0.00487 
52.028496 0.0049 
52.175446 0.009712 
52.656956 0.009248 
52.739716 0.013033 
53.342274 0.005066 
56.295635 0.004713 
56.303818 0.010271 
56.965073 0.572796 
57.213345 0.005669 
57.32481 0.004837 
57.942425 0.015367 
58.065388 0.006658 
58.986736 0.009423 
58.988197 0.208945 
59.049541 0.004987 
60.044659 0.029148 
60.055847 1.224755 
61.010841 0.325949 
61.53347 0.006448 
61.955547 0.009848 
62.018703 0.144872 
62.544674 0.010138 
63.481159 0.005929 
63.54356 0.009185 
63.862675 0.014524 
65.811066 0.009115 
65.980858 0.003913 
66.757729 0.004232 
67.549477 0.008729 
67.99324 0.589554 
68.16021 0.013233 
68.622993 0.010745 
68.930786 0.004587 
69.070091 0.003978 
69.187141 0.01204 
69.414268 0.007789 
69.486832 0.008741 
70.065163 1.198323 
70.804665 0.006566 
71.343864 0.006371 
71.655266 0.004956 
72.080818 0.017787 
72.620705 0.011669 
72.779373 0.011837 
72.937302 0.015098 
73.661156 0.005272 
74.06012 0.007052 
74.2192 0.005188 
76.050499 0.032343 
76.240051 0.014126 
76.668457 0.007955 
76.998123 1.350071 
77.172516 0.01124 
77.2826 0.005162 
78.013435 0.076847 
78.264702 0.00534 
78.641098 0.010898 
78.953766 0.010539 
78.994797 0.005691 
79.021255 0.213716 
79.054184 0.03342 
79.272064 0.004445 
79.3013 0.004623 
80.049431 0.012019 
80.638206 0.007611 
80.718056 0.006091 
81.069878 0.183824 
81.239594 0.00666 
82.185722 0.004728 
82.316757 0.006442 
84.068489 0.004206 
84.080589 0.006976 
84.288231 0.014678 
84.865112 0.005903 
85.1492 0.011132 
85.654343 0.006552 
86.003525 0.727214 
86.096786 0.005535 
86.48114 0.013823 
87.044075 0.038549 
89.059624 0.011102 
89.979134 0.183595 
90.482796 1.109083 
90.946892 0.005759 
91.054184 0.121611 
91.480865 0.055768 
92.220253 0.005238 
92.520035 0.007617 
93.069969 0.140298 
93.272514 0.014948 
94.685684 0.009633 
95.008797 0.172477 
95.085472 0.095195 
95.129585 0.010273 
95.404419 0.006711 
96.343056 0.01025 
97.994606 4.834875 
98.077072 0.009578 
98.496552 0.091512 
98.975334 32.881374 
98.992546 0.466773 
99.484505 0.025554 
99.488144 3.912772 
99.491707 0.048109 
99.945938 0.004872 
99.978638 0.590226 
99.990639 0.068942 
100.473228 0.010175 
100.486145 0.272099 
100.97139 0.047665 
101.003151 18.651716 
101.484558 0.015053 
101.541016 0.01455 
102.055397 0.005195 
105.069908 0.165902 
106.369629 0.009451 
106.496086 0.043156 
106.999878 41.94101 
107.085472 0.020295 
107.501938 1.451082 
107.989418 0.149433 
107.99781 4.267981 
108.001808 0.280638 
108.280388 0.005738 
108.400932 0.009654 
108.493423 9.696692 
108.499489 0.042441 
108.996361 1.123391 
109.076012 0.005145 
109.491432 0.940753 
109.495209 0.02962 
110.489845 0.130316 
111.342651 0.007998 
112.075554 0.004088 
113.070885 1.277144 
114.007713 0.980733 
114.054909 0.120273 
114.074486 0.013888 
114.986259 0.007206 
115.005791 0.03061 
115.086548 0.334214 
115.501411 0.216117 
115.997917 0.118671 
116.005203 100.0 
116.070488 0.601088 
116.507187 4.06461 
116.985847 13.599403 
117.003075 10.368423 
117.007217 0.837045 
117.054482 0.04929 
117.498711 2.214149 
117.504082 0.402676 
117.989227 0.232538 
117.99408 0.01028 
118.001549 2.580906 
118.086113 0.00692 
118.218803 0.009406 
118.496765 0.114817 
118.502251 0.016645 
118.507957 0.057721 
118.999664 0.064962 
119.013733 0.005382 
119.018623 0.006426 
119.085434 0.346787 
119.664314 0.013847 
121.028313 0.030992 
121.101364 0.005939 
123.013016 2.929679 
123.091164 0.011184 
123.514648 0.050076 
124.010933 0.20466 
124.989761 0.006749 
125.010483 10.106295 
125.015945 0.128019 
125.512001 0.402454 
126.008301 1.073471 
126.012642 0.062114 
126.197639 0.007523 
126.510216 0.004894 
127.006851 0.203035 
127.513184 0.217727 
128.410599 0.005848 
128.510895 0.006271 
129.489822 1.366268 
129.99147 0.030309 
130.020996 0.006243 
130.097565 0.060195 
130.487961 0.058018 
130.971481 0.032325 
131.00148 0.157088 
131.730698 0.008569 
131.961029 0.005626 
132.01828 0.173813 
132.080719 0.074928 
132.172684 0.011551 
132.464874 0.007238 
132.777054 0.005379 
132.958176 0.42639 
133.101166 0.404222 
134.104355 0.015959 
134.615616 0.005707 
134.978622 0.039979 
134.996399 3.271945 
136.052353 0.004879 
136.086929 0.057963 
137.001633 3.49349 
137.00737 0.01065 
137.011063 0.022228 
137.503174 0.227434 
137.999573 0.5722 
138.495193 2.454477 
138.997253 0.153273 
139.493027 0.349837 
139.976852 0.050916 
140.001434 0.010426 
140.491653 0.02097 
141.03714 0.00531 
141.054199 0.007106 
141.203537 0.00571 
142.216339 0.0069 
144.617828 0.014543 
144.987305 0.032958 
145.308121 0.00634 
145.985672 0.020926 
146.006851 5.017956 
146.508209 0.26998 
147.004562 0.724363 
147.116776 0.147328 
147.264847 0.013869 
147.500076 0.032883 
147.506927 0.011807 
148.003235 0.108436 
149.012177 0.020646 
149.023483 0.024827 
150.951065 0.005142 
150.968872 0.286954 
151.828644 0.010082 
153.007141 0.145193 
153.014145 0.018958 
153.731476 0.015945 
157.432739 0.012581 
158.0923 0.010917 
158.727188 0.013122 
159.076309 1.926217 
159.092117 0.005979 
159.137238 0.005039 
160.072006 0.016513 
160.079865 0.042897 
160.111877 0.00721 
160.935516 0.080467 
161.887177 0.010715 
163.998779 0.040217 
164.046707 0.01751 
165.359756 0.009187 
166.18602 0.009995 
166.637604 0.004986 
166.654022 0.006591 
167.761551 0.012823 
170.196472 0.00529 
171.125824 0.008377 
173.766357 0.007035 
175.082932 0.091173 
175.118912 0.316371 
175.147903 1.122269 
175.772583 0.007614 
176.031754 0.007016 
176.070358 0.081911 
176.09198 0.005151 
176.107193 0.016671 
176.119644 0.012957 
176.128128 0.27949 
176.143402 0.432658 
176.15152 0.208135 
176.164352 0.006475 
176.911606 0.013827 
176.989197 1.368354 
177.018631 0.007824 
177.055374 0.012498 
177.065826 0.130699 
177.102249 0.628535 
177.113083 0.251479 
177.127151 0.032332 
177.146759 0.006491 
178.085907 0.049324 
178.108688 0.384693 
178.123016 0.391599 
178.133774 3.482831 
178.142609 0.169857 
178.158844 0.155574 
178.945816 0.116408 
179.062836 0.027254 
179.070404 0.390956 
179.106155 0.004849 
179.117844 0.061806 
179.137054 0.025386 
182.057144 0.020992 
182.381348 0.014499 
183.343307 0.004959 
185.991776 0.006895 
190.33432 0.014599 
191.732971 0.008041 
192.961945 0.057978 
194.999786 1.144821 
195.767578 0.013858 
END IONS

