BEGIN IONS
PEPMASS=540.288
CHARGE=1+
COMPOUNDNAME=Massbank: Apramycin
LIBRARYQUALITY=3
SMILES=[H]OC([H])([H])C([H])(O1)C([H])(N([H])[H])C([H])(O[H])C([H])(O[H])C([H])1OC([H])(O2)C([H])(N([H])C([H])([H])[H])C([H])(O[H])C([H])(O3)C([H])2C([H])([H])C([H])(N([H])[H])C([H])(OC([H])(C([H])(O[H])4)C([H])(N([H])[H])C([H])([H])C([H])(N([H])[H])C([H])(O[H])4)3
INCHIKEY=XZNUGFQTQHRASN-UHFFFAOYSA-N
INCHI=1S/C21H41N5O11/c1-26-11-14(30)18-8(33-20(11)37-21-16(32)13(29)10(25)9(4-27)34-21)3-7(24)19(36-18)35-17-6(23)2-5(22)12(28)15(17)31/h5-21,26-32H,2-4,22-25H2,1H3/t5-,6+,7-,8+,9-,10-,11+,12+,13+,14-,15-,16-,17-,18+,19?,20-,21-/m1/s1
MSLEVEL=2
SOURCE_INSTRUMENT=ESI-LC-ESI-QTOF
FILENAME=Massbank_ESI_positive_8_1_2014_peaks.mgf
SEQ=*..*
IONMODE=Positive
ORGANISM=MASSBANK
NAME=Massbank: Apramycin [M+H]+
PI=Putative Massbank Match
DATACOLLECTOR=Massbank
PUBMED=N/A
SUBMITUSER=mwang87
TAGS=
SPECTRUMID=CCMSLIB00000206043
SCANS=1303
72.0446 169.541 
84.0466 215.734 
96.0464 487.04 
98.0617 135.956 
102.0557 146.344 
110.0609 255.169 
111.0444 274.634 
122.0601 138.275 
126.0563 386.485 
128.0706 382.451 
135.0937 136.46 
136.0745 137.67 
140.0703 133.838 
142.0533 146.041 
144.0661 382.753 
145.0929 118.003 
150.0533 103.48 
153.1067 104.69 
162.0758 1195.159 
163.1066 1362.582 
164.0715 174.786 
168.0699 147.352 
169.0959 127.584 
180.0864 673.323 
181.0975 512.052 
182.0779 189.612 
187.1098 196.672 
199.1076 2568.835 
200.0921 700.555 
201.1235 450.227 
217.1185 10000.0 
230.1465 107.917 
243.1317 161.674 
253.1186 215.532 
254.1391 104.488 
255.1289 175.593 
271.1281 1075.139 
277.1176 105.093 
289.1423 332.224 
290.1502 103.782 
295.1242 308.422 
308.1635 246.899 
312.1506 240.948 
313.1414 468.482 
326.1725 471.81 
330.1619 173.878 
343.1964 230.56 
344.1808 900.252 
361.2032 198.991 
362.1943 253.757 
378.1878 662.431 
END IONS

