BEGIN IONS
PEPMASS=281.042
CHARGE=1+
COMPOUNDNAME=norlichexanthone
LIBRARYQUALITY=3
SMILES=N/A
INCHIKEY=AQZHBCDRWFMXIN-UHFFFAOYSA-N
INCHI=InChI=1S/C14H10O5/c1-6-2-7(15)4-10-12(6)14(18)13-9(17)3-8(16)5-11(13)19-10/h2-5,15-17H,1H3
MSLEVEL=2
SOURCE_INSTRUMENT=N/A-ESI-QFT
FILENAME=library_mgf.mgf
SEQ=*..*
IONMODE=positive
ORGANISM=MONA
NAME=norlichexanthone [M+Na]+
PI=MoNA
DATACOLLECTOR=MoNA:VF-NPL-QEHF017952
PUBMED=N/A
SUBMITUSER=mwang87
TAGS=
SPECTRUMID=CCMSLIB00004709015
SCANS=17952
50.453403 0.043145 
51.023407 0.038607 
51.9403 0.985281 
52.077171 0.06399 
52.606209 0.038401 
52.86525 0.039899 
52.896191 0.053415 
53.002522 0.048989 
53.038918 1.064991 
53.044476 0.055138 
53.413471 0.074388 
55.018169 1.078679 
55.054558 6.965734 
55.69487 0.041716 
55.745831 0.048657 
55.887707 0.036186 
55.93465 0.6285 
56.049789 0.982182 
56.965084 12.313705 
57.033764 0.365788 
57.07019 5.569443 
57.112152 0.068205 
58.065422 15.051491 
59.049377 0.614882 
59.068642 0.052252 
59.654293 0.038004 
59.930511 0.130127 
60.957924 0.543175 
61.01088 100.0 
61.15033 0.058244 
61.758347 0.04137 
62.010258 1.166112 
62.014217 3.532221 
62.018673 4.009885 
62.929337 0.058224 
62.990055 0.694582 
63.006626 8.031791 
63.02655 0.098663 
63.37077 0.047944 
63.928875 1.884602 
63.997925 1.222311 
64.608162 0.043356 
64.706772 0.044622 
64.927399 1.656882 
64.954849 0.049923 
65.038727 0.51768 
65.786018 0.049804 
65.925644 5.250507 
66.014946 0.048082 
66.73378 0.035896 
66.926682 0.247142 
67.054359 15.228227 
67.215378 0.040342 
67.924408 1.838306 
68.049545 0.249122 
68.057617 0.126733 
68.619507 0.040269 
68.840614 0.063537 
68.997231 2.682609 
69.033592 1.440073 
69.069992 6.710917 
69.5075 0.049259 
70.029076 0.050532 
70.065224 3.096372 
70.086143 0.063438 
70.320259 0.076006 
70.478767 0.052999 
70.57093 0.037078 
70.580704 0.042508 
70.980469 1.865337 
71.04921 0.721653 
71.085594 0.862053 
71.448647 0.044702 
71.951981 0.177745 
72.044434 0.348752 
72.080856 2.858931 
72.937187 0.879898 
73.046852 10.818387 
73.064865 2.220289 
74.023743 0.19425 
74.046326 0.05102 
74.060066 0.042788 
74.975533 0.044745 
75.026138 0.188056 
75.044052 0.30272 
75.457176 0.07147 
76.578957 0.055054 
77.005562 2.229454 
77.007942 0.041492 
78.013504 0.115425 
78.284157 0.038179 
78.952095 8.155703 
79.021248 8.798045 
79.05426 5.946421 
80.049461 0.367025 
80.949013 22.266262 
81.033524 0.456841 
81.067413 0.125365 
81.069939 6.737236 
81.939133 0.23293 
81.950073 2.428541 
81.952431 0.045549 
82.065216 0.187302 
82.947807 8.589782 
83.049149 1.169168 
83.085487 0.644299 
83.936111 1.394859 
84.044502 0.320825 
84.080826 1.00747 
84.959679 0.057116 
85.02858 0.169187 
85.064842 0.661777 
85.154686 0.054475 
85.156151 0.046067 
85.934921 0.127638 
85.945503 0.284265 
86.060066 2.502864 
86.096504 3.643512 
86.920944 0.044664 
87.044128 1.77798 
87.610687 0.047335 
88.075752 1.221635 
88.991081 0.39661 
89.059769 9.365497 
89.20079 0.049795 
90.947716 2.884473 
91.054276 4.803608 
91.057343 25.49201 
92.049553 1.217272 
92.057091 0.710935 
92.060654 0.252292 
93.03685 1.045346 
93.054192 0.072946 
93.061783 0.046617 
93.069954 18.002045 
94.065163 1.341538 
94.073349 0.268138 
95.049126 1.171815 
95.060387 0.043788 
95.074272 0.047121 
95.085548 24.245869 
95.089203 0.163562 
95.645874 0.054151 
96.044632 0.122855 
96.080734 0.134853 
96.08886 1.169791 
96.962708 0.88006 
97.064789 1.079003 
97.482483 0.047556 
98.060165 0.052649 
98.959564 3.430297 
98.975357 3.225815 
99.08033 0.103476 
99.93042 0.050166 
99.948509 0.371719 
99.96067 0.110566 
100.958412 1.088591 
102.94828 0.149335 
103.054192 0.35059 
103.520927 0.035877 
103.956139 0.066326 
105.033569 1.343617 
105.044785 0.365278 
105.069923 3.291398 
105.073196 0.053581 
105.91703 0.773599 
106.065056 0.284652 
107.001556 0.053219 
107.085602 17.714691 
108.044464 0.11098 
108.080688 0.04808 
108.088783 0.300513 
108.958176 0.081868 
109.064766 0.486017 
109.101204 0.886678 
109.318214 0.056563 
110.060059 2.987216 
110.096458 0.059661 
110.2715 0.041371 
111.043953 0.07917 
111.080437 0.064639 
113.059792 0.06115 
114.127525 0.103634 
115.358856 0.052608 
116.966225 0.559499 
116.985947 2.937824 
117.070045 0.043811 
117.390419 0.042044 
117.916916 0.173326 
118.065056 0.156374 
118.924858 1.761227 
118.943291 0.071955 
119.001595 0.122957 
119.049049 0.12159 
119.085526 2.430332 
120.080925 3.990188 
120.55822 0.053126 
120.920792 0.055604 
121.064636 0.29777 
121.084 0.183462 
121.10125 4.927725 
121.606781 0.058001 
122.059975 1.008764 
122.096649 0.088261 
122.941917 0.805665 
123.044083 0.058195 
123.080376 0.131699 
123.887688 0.046798 
123.928703 0.052185 
123.949806 1.354643 
124.938965 3.176026 
125.059776 0.660692 
125.107391 4.158406 
125.911324 1.951308 
125.940125 0.165171 
125.946648 5.143307 
126.149796 0.050858 
126.937729 0.879937 
126.947899 0.179489 
127.086296 0.045351 
127.908127 9.402964 
127.945435 1.609442 
127.955803 0.048692 
128.909195 0.740612 
128.933762 0.420032 
129.546768 0.045497 
129.907089 2.994425 
130.931488 0.212957 
131.085449 0.273023 
132.101379 0.059674 
133.017227 0.298825 
133.101242 0.398744 
134.060181 0.052376 
134.096405 0.270076 
134.201431 0.061571 
134.978622 0.182363 
134.996475 1.670544 
135.080429 0.677248 
135.116943 0.171711 
135.927643 0.371367 
136.07579 1.038148 
136.324112 0.052387 
136.935455 1.51919 
137.011795 0.513554 
137.059341 0.043398 
138.91571 0.055581 
139.008957 0.04208 
139.039001 0.098154 
140.464859 0.052293 
140.912872 1.456932 
140.952484 2.432167 
141.942581 3.104904 
142.018219 0.051509 
142.913589 0.313273 
142.949509 7.943269 
143.920685 0.18804 
143.939407 13.891642 
143.950287 0.414103 
144.910828 0.912035 
144.940735 1.629495 
144.948242 2.60656 
144.958832 0.127721 
145.076126 0.063708 
145.100433 0.046137 
145.928329 0.756165 
145.938354 5.049773 
145.966583 3.666694 
146.856674 0.051614 
146.910019 0.065703 
146.974304 0.988687 
147.116776 0.445129 
148.075699 0.184185 
148.941879 0.046041 
148.972855 0.046348 
149.011322 0.041287 
149.023438 0.430789 
149.132584 2.944109 
150.091553 0.039682 
150.655075 0.050109 
150.968613 0.072562 
151.958939 0.620883 
152.989319 0.322114 
153.006165 0.19673 
153.9384 0.242596 
155.022186 0.11319 
156.13829 3.115515 
156.926468 0.119187 
156.966064 5.388932 
157.96965 0.585058 
158.355957 0.045855 
158.923492 0.221853 
158.944168 0.068269 
158.954208 0.148717 
158.962845 29.068319 
158.976883 0.518047 
159.00296 0.05709 
159.952179 2.713092 
159.964233 3.433895 
160.027985 0.122882 
160.924667 0.076947 
160.951706 7.485435 
160.960587 18.145037 
161.059586 0.069318 
161.095688 0.059902 
161.94809 0.404417 
161.961395 1.164651 
162.044067 0.098714 
162.128204 0.072151 
162.921463 0.763713 
162.951248 0.078493 
162.958694 4.760698 
162.96579 0.063615 
163.148071 0.058722 
163.977081 6.459042 
164.920319 0.110773 
164.977203 0.178535 
166.747971 0.0574 
167.11792 3.381605 
169.016586 0.0466 
170.913956 0.266846 
171.943497 0.071961 
172.942184 0.104755 
173.901062 0.289738 
174.9758 0.081921 
176.95369 0.063557 
176.973755 0.099957 
177.127487 0.429711 
179.210358 0.071083 
180.961914 0.250571 
181.98764 1.232418 
184.227814 0.050732 
185.070999 0.327256 
185.459717 0.054103 
185.664581 0.070904 
185.932419 0.485598 
187.929169 3.556862 
188.924561 1.869938 
189.054688 0.055389 
189.927963 0.857658 
189.942368 0.046827 
190.952652 0.058913 
190.967575 0.790388 
191.085587 2.739534 
191.942047 1.05107 
192.088699 0.104718 
193.938309 0.096438 
195.091858 1.411069 
196.31308 0.060673 
196.921692 0.049862 
198.854736 0.05262 
199.015259 0.049327 
201.065826 0.236989 
201.455872 0.056066 
202.075821 0.170148 
202.952606 0.525298 
203.143127 0.724602 
203.943207 0.985585 
204.951401 0.050928 
205.939896 5.638851 
205.9879 0.717717 
206.94133 0.453594 
207.080658 0.050713 
207.938492 1.719803 
208.990173 0.113393 
209.011429 0.28696 
219.056793 1.64102 
219.080475 0.92513 
219.174301 0.698353 
219.539703 0.645697 
219.557556 0.077332 
219.564453 0.051503 
220.060577 0.048357 
220.963684 0.230491 
222.078476 0.061517 
223.027328 5.545664 
224.027802 0.452559 
225.042969 7.835964 
225.663757 0.053462 
226.043015 0.387151 
227.022232 3.813421 
227.038788 0.060434 
228.022995 0.056133 
229.001343 3.787625 
229.049408 0.04482 
233.267059 0.050096 
238.966324 0.046829 
239.081299 0.074031 
240.410751 0.046194 
241.038651 0.127244 
247.012405 0.583506 
248.988007 0.134898 
249.060944 0.466074 
249.090775 0.074069 
249.501083 0.059291 
252.983292 1.82348 
253.007172 0.068565 
254.962646 8.292391 
263.630341 0.05558 
264.080566 0.070071 
265.019989 0.176777 
266.999176 34.847832 
267.015533 0.469951 
267.071411 0.645814 
267.999115 7.707305 
268.978394 5.936888 
268.996399 3.015698 
269.014465 1.898714 
270.014496 0.131576 
270.957825 0.101445 
270.994049 3.991996 
271.009796 0.052128 
272.972931 0.122961 
274.032379 0.124584 
275.006317 0.063926 
275.040375 0.613931 
282.994476 0.074835 
283.030396 5.41039 
284.030884 0.963518 
284.11676 0.062532 
285.009674 2.677547 
285.025909 0.117406 
289.004517 0.566303 
289.055603 0.069887 
290.725586 0.043348 
293.05069 0.17315 
299.061371 0.062737 
END IONS

