BEGIN IONS
PEPMASS=329.079
CHARGE=1+
COMPOUNDNAME=dehydrocurvularin
LIBRARYQUALITY=3
SMILES=N/A
INCHIKEY=AVIRMQMUBGNCKS-GQCTYLIASA-N
INCHI=InChI=1S/C16H18O5/c1-10-5-3-2-4-6-13(18)16-11(8-15(20)21-10)7-12(17)9-14(16)19/h4,6-7,9-10,17,19H,2-3,5,8H2,1H3/b6-4+
MSLEVEL=2
SOURCE_INSTRUMENT=N/A-ESI-QFT
FILENAME=library_mgf.mgf
SEQ=*..*
IONMODE=positive
ORGANISM=MONA
NAME=dehydrocurvularin [M+K]+
PI=MoNA
DATACOLLECTOR=MoNA:VF-NPL-QEHF016200
PUBMED=N/A
SUBMITUSER=mwang87
TAGS=
SPECTRUMID=CCMSLIB00004707263
SCANS=16200
50.095974 0.035006 
50.098015 0.087724 
50.441051 0.033515 
50.491009 0.033064 
50.614162 0.080442 
51.414047 0.033132 
51.576992 0.099176 
51.748398 0.030449 
51.759171 0.032431 
51.856705 0.077104 
51.940346 17.752272 
52.149872 0.03275 
52.284607 0.038781 
52.464504 0.029831 
52.477711 0.036238 
52.509617 0.035012 
52.543362 0.034234 
52.632404 0.030857 
52.659889 0.030571 
52.903076 0.031575 
52.940487 0.733753 
53.000099 0.073012 
53.002552 4.355777 
53.03896 6.342912 
53.088856 0.036967 
53.212891 0.032801 
53.310932 0.073948 
53.501869 0.029772 
53.662956 0.071212 
53.95079 0.034078 
53.9618 0.031073 
53.997799 0.18062 
54.042248 0.087907 
54.058334 0.031036 
54.290188 0.088204 
54.46526 0.032523 
54.566429 0.033469 
54.645187 0.035608 
54.86903 0.036096 
54.954948 0.030032 
55.018192 6.414867 
55.022202 0.034248 
55.03532 0.117019 
55.038136 0.032558 
55.054569 34.863647 
55.117149 0.038371 
55.255993 0.036545 
55.338451 0.044707 
55.403042 0.030142 
55.697559 0.032206 
55.737289 0.030979 
55.890614 0.037146 
55.934727 4.522053 
56.021526 0.048616 
56.04982 2.237698 
56.057919 1.976625 
56.060822 1.555728 
56.211765 0.032884 
56.383358 0.028451 
56.42115 0.045238 
56.471493 0.030689 
56.618965 0.032516 
56.710545 0.033026 
56.750443 0.034834 
56.791508 0.038943 
56.904373 0.034883 
56.942829 0.081872 
56.965099 17.702774 
56.966522 0.075114 
57.033833 4.74479 
57.070202 61.254398 
57.106583 0.03479 
57.335644 0.033782 
57.368629 0.048366 
57.67305 0.035775 
57.74622 0.037806 
57.935112 5.17153 
58.010872 0.038454 
58.037163 0.115487 
58.065441 9.506438 
58.07354 0.818467 
58.126755 0.032368 
58.152454 0.034265 
58.183952 0.031851 
58.508499 0.032715 
58.574825 0.030193 
58.763496 0.032111 
58.995308 1.857957 
59.040588 0.046866 
59.048061 0.034691 
59.049454 8.228434 
59.192932 0.032 
59.255154 0.040585 
59.489185 0.031372 
59.553249 0.033429 
59.807407 0.032264 
59.930527 2.565371 
59.949036 0.030145 
59.966743 0.160038 
60.04467 1.341432 
60.107101 0.03788 
60.183281 0.036001 
60.303505 0.036699 
60.322273 0.036231 
60.32579 0.087644 
60.512226 0.030771 
60.588463 0.033534 
60.773327 0.043684 
60.871174 0.032006 
60.990543 0.037846 
61.010929 100.0 
61.261848 0.037408 
61.476173 0.031808 
61.928127 0.100852 
62.014301 0.677437 
62.018738 11.099145 
62.060303 1.446519 
62.068272 0.241385 
62.093838 0.030636 
62.128662 0.036242 
62.211712 0.034486 
62.493496 0.038535 
62.531246 0.035784 
62.576405 0.033841 
62.757957 0.096495 
62.907047 0.031879 
62.929298 0.591278 
62.990173 4.637988 
63.00671 2.964012 
63.026535 0.312551 
63.267284 0.034953 
63.617928 0.035398 
63.832642 0.03093 
63.887005 0.035334 
63.94392 0.107744 
63.974789 0.032732 
63.987118 0.035623 
63.997955 5.899096 
64.014503 2.54333 
64.051231 0.03138 
64.106026 0.043925 
64.172585 0.032128 
64.311256 0.037876 
64.745987 0.031836 
64.874847 0.03223 
64.899803 0.031644 
64.907898 0.035717 
64.927483 0.333067 
64.985825 0.036941 
65.005852 0.200471 
65.038811 4.556455 
65.111786 0.08787 
65.13308 0.117003 
65.145905 0.042612 
65.269745 0.042796 
65.794144 0.034423 
66.072891 0.036912 
66.080315 0.032273 
66.13636 0.029679 
66.29287 0.029194 
66.473221 0.029894 
66.549873 0.033787 
66.630905 0.030068 
66.667938 0.053913 
66.681557 0.033773 
66.797691 0.029973 
66.812943 0.092412 
66.962746 0.032366 
67.018112 0.126085 
67.05442 36.985245 
67.253494 0.031878 
67.275925 0.071421 
67.360451 0.035176 
67.547356 0.071572 
67.667244 0.030064 
67.935051 0.785877 
68.049614 1.754945 
68.057739 2.047425 
68.060669 2.504311 
68.529945 0.034142 
68.669922 0.070832 
68.678459 0.030342 
68.681854 0.02924 
68.787514 0.034133 
68.942848 1.055743 
68.997246 4.046724 
69.033646 5.372209 
69.045059 0.04014 
69.070015 15.502615 
69.241394 0.072315 
69.981102 0.032033 
70.065254 79.662346 
70.073448 0.090128 
70.095978 0.083481 
70.330994 0.041262 
70.337196 0.03653 
70.942001 0.03254 
70.958015 3.605997 
71.049248 4.548266 
71.068626 0.595251 
71.085625 15.333039 
71.111946 0.033482 
71.174179 0.081201 
71.350807 0.033629 
71.421555 0.035951 
71.738663 0.034962 
71.929466 0.272104 
72.044746 0.05801 
72.080894 2.022361 
72.937225 7.377956 
73.010742 0.983104 
73.028503 0.329408 
73.03463 0.032462 
73.046989 0.034205 
73.064857 0.524929 
73.084297 0.038708 
73.15242 0.041313 
73.242661 0.085897 
73.413742 0.03508 
73.634422 0.030052 
73.675865 0.072624 
73.715973 0.030036 
73.980659 0.03173 
73.999153 0.031115 
74.032974 0.03528 
74.060112 0.914642 
74.068024 7.523175 
74.095558 0.034212 
74.502098 0.030118 
74.975456 0.204398 
74.989838 0.040133 
75.026466 0.326454 
75.044159 0.47425 
75.071472 0.132966 
75.61071 0.051594 
75.748077 0.029206 
75.862679 0.038641 
76.03933 0.094317 
76.340027 0.092875 
77.005608 1.257245 
77.038643 0.29289 
77.041801 0.036384 
77.555481 0.037563 
77.788338 0.034916 
77.941132 0.0656 
77.959373 4.614707 
78.309166 0.032989 
78.715363 0.035794 
78.930397 0.037318 
78.967133 9.392321 
78.984932 1.089356 
79.021278 55.092873 
79.054321 23.455847 
79.778351 0.034974 
80.020538 0.184043 
80.024757 0.819174 
80.04953 0.477937 
80.057648 1.407925 
80.131477 0.044211 
80.432304 0.033424 
80.570068 0.032361 
80.593513 0.032268 
80.963005 0.791239 
81.000549 0.047872 
81.01712 1.994491 
81.0336 2.770327 
81.069969 54.605747 
81.292511 0.030395 
81.372215 0.036896 
81.925896 0.031681 
82.065277 0.579545 
82.073341 7.862137 
82.076004 0.80154 
82.207741 0.038367 
82.671417 0.092294 
82.728279 0.084687 
83.012787 3.360485 
83.049217 3.896584 
83.085556 4.444427 
83.670982 0.032395 
84.044502 0.129437 
84.080833 1.570306 
84.088959 0.049933 
84.118118 0.033898 
84.754601 0.035316 
84.916504 0.033013 
84.937836 0.195719 
85.010689 0.054952 
85.028481 1.332857 
85.06488 2.044181 
85.101257 3.807164 
85.168243 0.033826 
85.207199 0.032416 
85.38475 0.036794 
85.627243 0.03799 
85.945541 2.087301 
86.06012 1.406074 
86.084145 0.039859 
86.096558 0.331835 
86.147423 0.096661 
86.256096 0.031652 
86.706963 0.033436 
87.000404 0.050366 
87.007622 0.029947 
87.044159 14.848733 
87.265747 0.032104 
87.676407 0.031333 
87.845963 0.032865 
87.943741 0.145673 
88.075768 56.94997 
88.204224 0.031442 
88.262009 0.033615 
88.604919 0.034204 
88.952179 0.062264 
88.968483 2.159189 
89.059784 17.88415 
89.079124 0.407284 
89.143738 0.043533 
89.735733 0.042141 
89.802353 0.030296 
90.055038 2.677814 
90.063271 0.306679 
90.590683 0.038605 
90.807693 0.037715 
90.894661 0.033262 
90.947754 12.647841 
90.957077 0.030489 
90.967064 0.210238 
91.054321 17.390787 
91.057419 2.824891 
91.067993 0.034822 
92.049515 0.140586 
92.057793 0.345175 
92.241913 0.034621 
92.754364 0.037381 
92.952011 0.088181 
92.979858 0.054334 
92.982796 6.728148 
93.036713 0.081707 
93.069969 11.567817 
93.502487 0.030944 
93.912262 0.088013 
93.956024 1.187568 
94.006958 0.033677 
94.065163 0.215685 
94.073341 0.44447 
94.076347 0.22124 
94.315094 0.037626 
94.687256 0.039535 
94.943642 0.047058 
94.978462 0.337669 
95.013054 0.066368 
95.036102 0.035197 
95.04921 14.783291 
95.060432 0.047844 
95.085602 18.36558 
95.110832 0.032012 
95.246414 0.075276 
95.673409 0.03699 
95.951469 0.442658 
96.044395 0.102066 
96.052475 0.64547 
96.080826 0.222751 
96.088844 1.777566 
96.091904 7.316838 
96.11161 0.034669 
96.13591 0.032344 
96.371262 0.034136 
96.434319 0.032081 
96.593567 0.031975 
96.879761 0.042274 
97.010803 0.043066 
97.028595 0.419874 
97.039696 0.103597 
97.064896 1.944846 
97.095322 0.375093 
97.101341 0.769168 
97.923447 0.037177 
97.949173 0.205124 
98.060364 0.075405 
98.09668 0.16796 
98.196785 0.102281 
98.303276 0.04442 
98.423058 0.050446 
98.472496 0.033751 
98.766296 0.032573 
98.965324 0.031341 
98.975464 1.905592 
98.984261 31.987108 
99.031021 0.070715 
99.044128 0.731826 
99.080574 0.595657 
99.469986 0.080407 
99.583534 0.088267 
99.623703 0.040815 
99.946228 0.033728 
100.0756 0.12038 
100.087021 0.037231 
100.112183 0.223669 
100.162094 0.033476 
100.511993 0.030444 
100.679222 0.0345 
101.059738 0.431742 
102.091469 12.227456 
102.171349 0.04754 
102.914803 0.039814 
102.948273 5.780924 
102.956268 0.075644 
103.039246 0.044723 
103.054337 1.762102 
103.486877 0.053915 
103.568634 0.030607 
103.797798 0.112334 
103.94799 0.049399 
103.956154 1.606457 
103.974983 0.043836 
104.05761 0.044293 
104.182518 0.082873 
104.187218 0.036471 
104.229347 0.032718 
104.649567 0.038032 
104.910355 0.05546 
104.946747 0.096246 
104.963921 0.060709 
104.982796 0.181843 
105.033539 0.495295 
105.044785 0.619594 
105.07 10.494182 
105.533302 0.033971 
105.746719 0.035048 
105.751373 0.032989 
105.947952 0.059073 
105.954865 0.068558 
105.971825 0.078082 
106.065292 0.41443 
106.073067 0.189648 
106.086372 13.753953 
106.090027 0.070899 
106.907516 0.049705 
106.979095 0.067609 
106.998444 0.757847 
107.049248 3.435415 
107.052818 0.073999 
107.08564 4.464921 
107.134865 0.034409 
107.196548 0.033144 
107.220482 0.088802 
107.323517 0.034912 
107.748093 0.036068 
107.950523 0.121711 
107.969757 0.045038 
108.081039 0.396413 
108.089157 0.060728 
108.423851 0.032137 
108.923653 0.244688 
108.958351 3.331869 
108.978035 0.049548 
109.028481 0.367886 
109.064934 2.309268 
109.101204 2.417574 
110.060181 0.291005 
110.421272 0.037389 
110.920715 0.040976 
110.939262 5.023268 
110.974724 0.050514 
111.007759 0.550612 
111.044167 8.059952 
111.08062 0.315136 
111.379601 0.038877 
111.5037 0.034396 
112.047363 0.339871 
112.085762 0.034963 
112.192596 0.030656 
112.650322 0.04031 
112.934837 0.074277 
112.972443 0.048265 
112.992058 0.034188 
113.059837 0.06478 
113.111893 0.118268 
113.225212 0.03301 
113.642311 0.033548 
114.043045 0.093898 
114.069336 0.032922 
114.425797 0.037953 
114.585983 0.040566 
114.94796 0.131011 
115.054359 3.249857 
115.075539 0.045821 
115.409927 0.041708 
115.62146 0.113183 
115.888451 0.033331 
115.934593 0.114566 
116.062187 0.055146 
116.070686 0.242254 
116.688377 0.036746 
116.805435 0.102317 
116.964363 0.086522 
116.985977 4.257818 
117.069946 4.061859 
117.935387 0.667824 
118.064941 0.142831 
118.143311 0.078788 
118.458382 0.032664 
118.943176 6.750934 
119.049248 3.017416 
119.085648 4.28515 
119.19622 0.095454 
119.289513 0.039389 
119.898201 0.10476 
119.943428 0.582858 
119.951004 4.119026 
120.080978 0.892689 
120.471138 0.034504 
120.94104 2.409483 
120.950912 0.054565 
120.958832 1.138762 
121.028519 8.194465 
121.033134 0.078013 
121.064964 2.466801 
121.101257 1.671642 
121.557556 0.032904 
121.664734 0.037137 
121.878464 0.085814 
121.949455 0.129757 
121.966675 0.812215 
122.031868 1.370765 
122.096794 0.042582 
122.801567 0.035823 
122.920792 0.40145 
122.940491 6.171112 
122.986786 0.032981 
122.999252 0.042168 
123.044128 15.113829 
123.048943 0.070836 
123.080444 1.191193 
123.106575 0.042631 
123.117035 0.091056 
123.551346 0.035699 
123.94709 3.990258 
124.047424 2.279158 
124.241302 0.035486 
124.308174 0.036285 
124.936455 5.570473 
124.972458 0.136181 
125.005295 0.040468 
125.059647 0.711439 
125.096466 0.041503 
125.416023 0.035888 
125.936287 0.161707 
125.961044 0.208254 
126.055038 0.052258 
126.465721 0.038029 
126.933701 1.514899 
127.039291 0.260067 
127.625092 0.031986 
127.956184 1.280589 
128.062164 3.565601 
128.933594 0.051767 
128.963898 4.522908 
129.01828 1.197172 
129.069962 3.81326 
129.829391 0.03441 
129.95491 0.083409 
130.065186 0.356987 
130.077728 0.211352 
130.786041 0.096311 
130.943161 0.059142 
130.962921 1.275688 
130.979568 0.062715 
131.049286 1.244999 
131.085632 3.034534 
131.336304 0.042389 
131.445511 0.040186 
131.48204 0.036558 
131.903793 0.033499 
131.951157 0.949139 
132.080994 0.185552 
132.343338 0.035244 
132.940491 0.035145 
132.958359 31.17309 
133.03923 0.033861 
133.064911 2.650152 
133.101212 1.440835 
133.707474 0.034179 
133.948639 0.081615 
133.959854 0.044654 
134.060135 0.357078 
134.188538 0.035427 
134.201904 0.033032 
134.920151 0.056761 
134.95636 0.294717 
134.978897 10.048088 
134.984344 0.036371 
134.996567 7.130823 
135.044174 1.332769 
135.080475 1.014263 
135.90152 0.033231 
135.927841 0.201475 
136.075302 0.175919 
136.111877 0.095237 
136.840347 0.048649 
136.95462 0.177634 
137.0121 0.121747 
137.023376 0.219786 
137.059891 2.287113 
137.703064 0.030991 
137.928116 1.236926 
138.935577 0.047448 
138.951218 2.213671 
139.003098 0.038085 
139.021591 0.039055 
139.039093 0.337307 
139.07518 0.087116 
139.829437 0.033949 
139.923615 1.174494 
140.042694 0.046331 
140.301392 0.112151 
140.703476 0.034442 
140.931396 0.235493 
140.951401 0.40304 
140.984375 0.152675 
141.023483 0.046381 
141.064392 0.0392 
141.069962 2.724488 
141.611206 0.035961 
141.903473 5.026112 
142.07785 0.813246 
142.089264 0.035295 
142.274948 0.037033 
142.389084 0.037253 
142.862076 0.040183 
142.939072 0.078855 
142.946701 0.055293 
143.049347 0.10573 
143.085724 2.365383 
143.488953 0.036006 
143.757202 0.115935 
143.985916 0.102946 
144.057144 0.402801 
144.080933 0.806065 
144.958801 3.649177 
144.980164 0.201184 
145.003311 0.214431 
145.06488 2.3591 
145.088547 0.04871 
145.101257 1.89717 
145.206909 0.03595 
145.88504 0.040813 
145.960083 0.2646 
145.96666 23.916803 
146.07312 0.059233 
146.485428 0.107218 
146.957108 0.817281 
146.967102 3.318165 
146.974518 31.741762 
147.044266 2.147239 
147.08046 0.981914 
147.091461 0.383594 
147.116684 0.057332 
147.748489 0.087718 
147.964935 5.532149 
147.974792 1.366579 
148.076889 0.035563 
148.913193 0.036083 
148.95607 0.10212 
148.972061 59.319641 
149.023499 0.415839 
149.05983 1.321215 
149.311203 0.035296 
149.95488 0.121151 
149.961182 6.049589 
149.973267 0.078714 
150.951263 6.206443 
150.968948 64.605156 
151.0392 1.0533 
151.067032 0.038434 
151.075653 0.088549 
151.73349 0.034528 
151.95842 0.082773 
151.97081 0.170136 
152.062241 3.603305 
152.130295 0.091378 
152.60321 0.032075 
152.830017 0.032787 
152.951767 13.946799 
152.968491 1.271335 
152.989456 18.545437 
153.007248 0.549638 
153.054733 0.167876 
153.064697 0.453169 
153.070496 1.06023 
153.938293 0.15539 
153.959488 3.986342 
153.967178 0.040289 
153.992416 0.57213 
154.050262 0.088824 
154.077988 0.221739 
154.947021 16.530306 
154.964905 0.083848 
155.085648 2.406624 
155.9478 1.373544 
155.954987 7.063906 
156.080795 0.105225 
156.225311 0.033508 
156.338837 0.098437 
156.78894 0.034819 
156.907883 0.08352 
156.944275 8.298136 
156.955521 0.351059 
156.962845 1.309181 
157.064865 1.079884 
157.10173 0.335998 
157.450577 0.031897 
157.503708 0.036265 
157.952194 4.550723 
157.96312 0.045409 
158.059784 0.103724 
158.072388 0.133451 
158.096893 0.079306 
158.942657 1.316179 
158.953568 0.841589 
158.959961 1.523879 
159.044281 0.293336 
159.080612 3.586667 
159.116562 0.110643 
159.943008 0.122192 
160.051941 0.227195 
160.075455 0.077701 
160.545288 0.058882 
160.694992 0.033123 
160.939484 0.480236 
160.952484 0.034222 
161.059875 3.62865 
161.096176 0.655186 
161.157791 0.03662 
162.055588 0.091277 
162.064758 0.273912 
162.091888 0.093936 
162.561462 0.107129 
162.969681 0.062598 
163.038986 0.616081 
163.075439 0.235998 
163.977203 70.352768 
164.070816 0.142664 
164.977203 11.834302 
165.054794 1.156126 
165.069931 1.506723 
165.975296 18.939072 
166.060852 1.119447 
166.078598 0.158141 
166.28006 0.035855 
166.392792 0.033606 
166.664368 0.095183 
166.826935 0.044694 
166.982529 15.067407 
167.00029 0.036963 
167.034027 29.955011 
167.085632 0.454338 
167.70639 0.03272 
167.767853 0.035494 
167.886353 0.125134 
167.97168 4.465912 
167.995605 0.194402 
168.037201 8.69167 
168.057083 0.625853 
168.093002 0.195015 
168.690033 0.031229 
168.747681 0.035391 
168.961868 1.838996 
168.979736 1.17661 
169.038788 0.660236 
169.065063 1.396788 
169.076859 0.082807 
169.101303 0.1402 
169.944336 0.056821 
169.987564 0.132876 
170.07283 0.118386 
170.096313 0.053267 
170.672791 0.039444 
170.963089 17.536455 
170.977646 0.042923 
170.999817 1.366065 
171.044083 0.191924 
171.080597 0.960023 
171.103699 0.03284 
171.11763 0.105776 
172.052002 0.179447 
172.075912 0.33922 
172.942978 0.731117 
172.95784 10.165164 
172.966309 0.056293 
173.059967 1.015231 
173.096268 0.806633 
173.958191 0.745428 
174.067184 0.154869 
174.073914 0.032852 
174.091888 0.05185 
174.866257 0.038743 
174.954895 6.101472 
175.039108 0.448628 
175.075562 1.16905 
175.643234 0.03153 
176.047012 0.050357 
176.070694 0.132577 
176.916367 0.097414 
176.954971 0.177677 
176.992966 0.03652 
177.054932 0.788621 
177.12851 0.031609 
177.938324 2.602959 
178.077911 0.716748 
178.892776 0.550665 
178.964279 0.861555 
179.085907 0.667557 
179.104263 0.034958 
180.092896 0.048647 
180.879333 0.040052 
180.888275 8.680615 
180.961929 0.038414 
181.064926 1.710145 
181.088989 0.281734 
181.90387 0.159548 
181.987778 21.297308 
182.073105 0.166487 
182.09671 0.095559 
182.98822 2.77236 
183.080551 1.55548 
183.117386 0.279132 
183.948746 0.043053 
183.985886 4.136958 
184.052139 0.058271 
184.076126 0.5297 
184.084915 0.033972 
184.575363 0.045023 
184.879318 0.035433 
185.059982 1.338174 
185.08313 0.051909 
185.096405 0.363432 
185.130707 0.032713 
185.279816 0.032996 
185.949265 3.076707 
186.091675 0.057924 
186.221741 0.177996 
186.936035 0.691606 
187.039444 0.292396 
187.075562 3.202675 
187.085632 0.044804 
187.112366 0.171226 
187.224792 0.066304 
187.944778 5.836022 
187.97731 2.336516 
188.070297 0.103557 
188.236694 0.032357 
188.946106 0.168144 
188.974197 11.602127 
189.018845 0.069399 
189.05455 2.986611 
189.091187 0.160126 
189.926056 0.038676 
189.941879 2.739834 
189.976089 0.101062 
190.059952 0.089359 
190.924423 0.089835 
190.95343 1.529255 
190.968643 0.834406 
191.000473 0.546714 
191.070786 0.121119 
191.88089 0.371974 
191.941055 0.087372 
191.97171 1.352792 
192.055984 0.035619 
192.887634 0.040981 
192.952164 0.050773 
192.961685 23.843838 
192.998444 0.032737 
193.049606 0.065166 
193.101395 0.64198 
193.965134 0.03524 
194.072586 0.049712 
194.098694 0.098785 
194.927002 0.13481 
194.973358 0.059876 
195.080627 0.990889 
195.165848 0.037455 
195.927124 0.076394 
195.948898 4.027322 
196.088501 1.178834 
196.999557 0.03127 
197.060059 1.42837 
197.096359 0.760246 
197.890778 0.241127 
198.055679 0.052653 
198.067566 0.438229 
198.898773 1.924264 
199.028214 0.215025 
199.038513 0.29888 
199.06311 0.181782 
199.075455 1.40656 
199.123108 0.036766 
199.914154 0.195359 
200.0466 0.066725 
200.070618 0.467543 
201.054916 0.538238 
201.091064 1.330505 
202.086716 0.274603 
202.566345 0.034709 
202.873642 0.477425 
203.034134 0.061295 
203.070526 0.808643 
203.107285 0.104357 
203.143127 0.1429 
203.881546 5.866369 
204.881332 0.040899 
204.890488 0.047569 
205.049683 0.106849 
205.065308 0.055307 
205.707962 0.038462 
205.987762 18.859051 
206.072357 0.110163 
206.867996 0.127172 
206.906418 0.070188 
206.926788 0.667767 
206.97789 0.820075 
206.98819 2.624424 
207.83075 0.041494 
207.896118 0.040784 
207.986221 2.516682 
208.099655 0.274836 
208.412384 0.036948 
208.543259 0.035281 
208.883514 0.433912 
208.92688 2.711486 
208.975311 0.77283 
209.010803 0.376497 
209.095886 0.149813 
209.876465 0.07009 
209.891434 1.924487 
209.900635 0.268925 
210.899155 0.27273 
210.972198 14.801433 
211.075455 1.298 
211.112183 0.608756 
211.931519 0.034454 
212.070816 4.232742 
212.082245 0.185629 
213.054871 0.8581 
213.065903 0.08194 
213.077026 0.222516 
213.090973 0.16548 
213.197815 0.03881 
213.885971 0.243292 
214.061874 0.078491 
214.086334 0.35759 
215.008621 0.116414 
215.070496 1.377462 
215.118683 0.107585 
215.901672 0.32863 
216.101944 0.144741 
216.338821 0.033856 
216.872772 0.033455 
216.891434 0.254954 
217.049454 0.061281 
217.085938 0.075601 
217.886658 0.044719 
217.898376 0.032288 
218.86853 9.756099 
219.174408 0.230034 
219.473297 0.589996 
219.484955 0.186024 
219.50528 0.323369 
219.522781 0.254151 
219.798172 0.032434 
219.867935 0.354817 
219.877686 0.153675 
220.77681 0.050502 
220.884338 14.01799 
220.903503 1.965397 
220.942245 0.050078 
221.096497 0.13394 
221.883469 0.959252 
221.893402 0.09111 
221.904419 0.045908 
222.884155 0.442439 
222.899048 3.460511 
223.027908 0.105327 
223.123138 0.87733 
224.083527 0.3361 
224.127182 0.034993 
224.179214 0.036141 
224.878387 2.071833 
224.93721 0.228585 
225.091278 0.555484 
225.824234 0.034597 
225.886414 0.040479 
226.063217 0.049254 
226.086456 1.249805 
226.553223 0.035468 
226.896545 0.399664 
226.9375 3.922687 
227.022461 0.120633 
227.070587 0.825587 
227.094467 0.778978 
227.771667 0.03941 
227.940109 0.0407 
227.986511 0.035603 
228.021011 0.039166 
228.101288 0.290635 
228.890976 0.103811 
230.906845 3.216766 
230.96701 0.150678 
231.36145 0.037123 
232.202881 0.040665 
232.885818 0.034205 
232.904434 0.424243 
232.946228 0.095447 
233.036789 0.057318 
235.997208 0.09626 
236.41571 0.037392 
236.878998 0.777374 
237.864349 0.039637 
238.914047 4.988571 
238.965912 0.194302 
239.070557 0.334351 
239.106888 0.558835 
239.900085 0.038913 
240.065689 0.831727 
240.909363 7.584982 
241.085831 0.086151 
241.885727 0.037821 
242.080734 0.241218 
242.118118 0.051898 
242.90892 0.046025 
243.06543 0.41493 
244.687195 0.035519 
244.88414 3.164881 
244.909241 5.516268 
245.883759 0.075729 
245.907639 0.041059 
246.884293 0.04304 
246.905563 3.097956 
247.602661 0.0394 
247.904083 0.327903 
248.189194 0.039329 
248.90242 0.87576 
248.917191 2.021951 
249.45488 0.038797 
250.034515 0.043617 
250.186935 0.038311 
250.667892 0.037719 
250.894745 0.111769 
250.917252 0.041008 
251.022476 0.266428 
252.077194 0.066505 
252.101318 0.048069 
253.050018 0.056005 
254.058121 0.128532 
254.081573 0.316771 
254.118484 0.060878 
254.528259 0.038477 
255.088898 0.54224 
255.898834 0.089136 
257.033447 0.039609 
257.080933 0.987418 
257.841766 0.037306 
258.88913 0.039143 
259.072479 0.141543 
259.601898 0.032829 
259.99585 0.038498 
260.676331 0.089433 
261.919495 0.038891 
262.894745 11.199886 
263.894623 0.78933 
263.925415 0.037504 
264.466705 0.032863 
264.854614 0.046794 
264.894348 0.191332 
266.926331 0.910724 
266.99939 1.146344 
267.102448 0.14755 
267.689117 0.035602 
268.263306 0.123957 
269.014923 0.595608 
269.044739 0.095667 
271.431763 0.03401 
273.139801 0.03377 
274.037476 0.036588 
275.81073 0.046455 
278.384521 0.04027 
278.695709 0.038956 
278.818604 0.082379 
279.734619 0.03491 
279.805847 0.084378 
279.825867 0.114708 
280.813751 2.70367 
281.821777 5.172649 
282.829498 0.130308 
283.03064 1.803228 
283.731476 0.040559 
283.820618 1.819067 
283.839111 0.044769 
284.031738 0.041365 
284.935669 0.037256 
285.574799 0.036546 
285.816437 0.164706 
285.835999 0.531146 
286.8237 1.30085 
287.154572 0.140794 
287.831543 0.984985 
288.52887 0.034493 
290.305237 0.041066 
291.660492 0.041335 
293.010986 0.051158 
293.21817 0.037605 
294.245056 0.037091 
294.813507 4.648104 
295.799286 0.035498 
295.820221 0.442253 
296.026459 0.034707 
296.80835 25.279919 
297.816528 4.756969 
298.577942 0.035918 
298.827698 0.202028 
300.822723 1.882577 
300.840088 1.905035 
301.58609 0.03341 
301.810638 0.295467 
302.818726 0.110018 
304.835419 0.039343 
305.106293 0.036742 
307.391144 0.049174 
308.513092 0.038227 
310.01123 0.035183 
310.843597 0.035651 
311.816467 0.108162 
312.192963 0.042186 
312.326416 0.317331 
312.822998 0.201287 
313.011658 0.089741 
313.811127 3.530594 
314.165527 1.435045 
314.818817 2.730855 
314.928101 0.03694 
315.173004 3.333115 
315.827301 0.035298 
315.929657 1.127591 
315.94989 0.045056 
316.927216 0.567798 
318.850555 0.294423 
319.221344 0.034076 
319.417114 0.035324 
322.824036 0.176049 
323.105713 0.041097 
324.825195 0.04036 
325.831055 2.646507 
327.923523 0.033247 
327.96582 0.234215 
327.987122 0.073629 
328.963776 0.127097 
330.196625 1.106039 
330.336334 0.241513 
331.677063 0.03833 
332.937073 0.03322 
333.940125 3.196374 
334.486328 0.039205 
334.937653 1.478647 
336.938568 0.040611 
338.587952 0.043662 
339.346466 0.086089 
341.840485 0.034452 
342.833832 0.036242 
343.054901 0.034526 
344.970703 0.093344 
345.976593 19.55324 
346.953827 0.142316 
346.973999 14.04908 
347.349945 0.035495 
347.923096 0.044455 
347.974884 1.795851 
348.272919 0.037302 
348.607941 0.034301 
350.627228 0.038445 
351.902557 0.036562 
351.950562 0.548474 
352.947632 0.098932 
353.359619 0.042487 
END IONS

