BEGIN IONS
PEPMASS=679.264
CHARGE=1+
COMPOUNDNAME=3-{[(2S,3R,4S,5R,6R)-3-{[(2S,3S,4R,5R,6S)-3,5-dihydroxy-4-methoxy-6-methyloxan-2-yl]oxy}-4,5-dihydroxy-6-methyloxan-2-yl]oxy}-8-hydroxy-15-methyl-11,18-dioxapentacyclo[10.6.2.0�,?.0?,�?.0�?,�?]icosa-1,3,5,7,9(19),12(20),13,15-octaene-10,17-dione
LIBRARYQUALITY=3
SMILES=N/A
INCHIKEY=PONPPNYZKHNPKZ-BAHCCNBTSA-N
INCHI=InChI=1S/C32H32O14/c1-10-8-9-15-18-16(10)29(38)45-26-17-13(23(35)20(19(18)26)30(39)43-15)6-5-7-14(17)44-32-28(24(36)21(33)11(2)42-32)46-31-25(37)27(40-4)22(34)12(3)41-31/h5-9,11-12,21-22,24-25,27-28,31-37H,1-4H3/t11-,12+,21+,22-,24+,25+,27-,28-,31+,32+/m1/s1
MSLEVEL=2
SOURCE_INSTRUMENT=N/A-Linear Ion Trap
FILENAME=library_mgf.mgf
SEQ=*..*
IONMODE=positive
ORGANISM=MONA
NAME=3-{[(2S,3R,4S,5R,6R)-3-{[(2S,3S,4R,5R,6S)-3,5-dihydroxy-4-methoxy-6-methyloxan-2-yl]oxy}-4,5-dihydroxy-6-methyloxan-2-yl]oxy}-8-hydroxy-15-methyl-11,18-dioxapentacyclo[10.6.2.0�,?.0?,�?.0�?,�?]icosa-1,3,5,7,9(19),12(20),13,15-octaene-10,17-dione M-H
PI=MoNA
DATACOLLECTOR=MoNA:VF-NPL-LTQ001116
PUBMED=N/A
SUBMITUSER=mwang87
TAGS=
SPECTRUMID=CCMSLIB00004685328
SCANS=949
344.980011 4.103775 
372.440002 1.659993 
373.0 100.0 
390.730011 12.603577 
444.980011 3.315192 
447.049988 7.056623 
461.019989 27.062847 
482.970001 1.451098 
515.049988 14.616985 
516.109985 1.323133 
519.02002 22.718407 
576.179993 0.563104 
651.179993 0.738423 
END IONS

