BEGIN IONS
PEPMASS=273.076
CHARGE=1+
COMPOUNDNAME=Naringenin
LIBRARYQUALITY=3
SMILES=N/A
INCHIKEY=FTVWIRXFELQLPI-UHFFFAOYSA-N
INCHI=InChI=1S/C15H12O5/c16-9-3-1-8(2-4-9)13-7-12(19)15-11(18)5-10(17)6-14(15)20-13/h1-6,13,16-18H,7H2
MSLEVEL=2
SOURCE_INSTRUMENT=N/A-ESI-QFT
FILENAME=library_mgf.mgf
SEQ=*..*
IONMODE=positive
ORGANISM=MONA
NAME=Naringenin [M+H]+
PI=MoNA
DATACOLLECTOR=MoNA:VF-NPL-QEHF013813
PUBMED=N/A
SUBMITUSER=mwang87
TAGS=
SPECTRUMID=CCMSLIB00004704876
SCANS=13813
50.158875 0.006642 
50.539062 0.005378 
51.20826 0.058457 
51.551357 0.026788 
52.625137 0.006891 
55.054943 0.044662 
55.168957 0.004945 
55.613396 0.005231 
55.811634 0.030891 
55.935207 0.186664 
56.205048 0.022194 
57.07061 0.186971 
58.065849 0.12082 
58.396694 0.005196 
58.66338 0.004432 
59.082767 0.005093 
59.247124 0.005874 
59.789089 0.011295 
59.856697 0.005248 
59.917759 0.00731 
60.098526 0.00849 
60.675102 0.005382 
60.956173 0.00449 
61.011372 100.0 
61.139523 0.005974 
62.010773 2.527345 
62.014709 6.092603 
62.017479 0.006192 
62.060741 0.019043 
62.597965 0.008278 
62.766525 0.051783 
62.845905 0.005708 
62.891102 0.005514 
63.007149 12.439273 
63.072815 0.051112 
63.104568 0.005449 
66.038483 0.005879 
66.12133 0.055165 
67.054916 0.087639 
68.134056 0.007031 
68.217239 0.006555 
69.070534 0.160482 
69.181198 0.00486 
69.853119 0.006183 
70.958633 0.244417 
71.049629 0.012752 
71.086166 0.082515 
71.236099 0.006895 
71.559799 0.00615 
71.652809 0.00827 
71.92997 0.621606 
72.681488 0.0044 
72.937866 0.696392 
74.010857 0.005372 
74.164421 0.022484 
74.67308 0.047323 
75.322258 0.006996 
76.809769 0.036366 
76.888733 0.051674 
77.360809 0.008684 
77.472107 0.007597 
78.764824 0.036817 
79.02179 0.162011 
79.048561 0.042169 
79.054756 0.01175 
79.423592 0.008405 
79.800362 0.049603 
79.823746 0.022464 
81.011589 0.007024 
81.070427 0.258436 
83.08606 0.205315 
84.708237 0.007385 
85.065407 0.010061 
85.101578 0.00852 
86.222168 0.005074 
86.387474 0.006108 
87.739571 0.006529 
87.906975 0.246365 
88.16787 0.005268 
89.01123 0.05509 
89.115074 0.007349 
89.83403 0.010656 
89.940422 0.298624 
90.620819 0.005061 
90.626213 0.006153 
90.948235 0.783376 
92.279808 0.005934 
92.786163 0.058832 
93.070358 0.063174 
93.941467 0.021412 
95.085953 0.26786 
96.418762 0.007005 
96.778557 0.007834 
97.065102 0.059921 
97.101593 0.141012 
98.975792 0.573408 
100.076172 0.07023 
101.003502 0.603295 
101.039345 0.053254 
101.532784 0.058178 
101.832214 0.02364 
102.48201 0.022254 
102.94812 0.100461 
103.510551 0.005308 
104.023041 0.005412 
104.050179 0.037682 
104.070908 0.291601 
104.096466 0.006043 
104.93071 1.142784 
104.992523 0.061588 
105.069901 0.005179 
105.161713 0.006608 
105.917381 1.606468 
106.863258 0.005278 
106.926147 0.00644 
107.085876 0.126771 
107.967102 0.059218 
108.255005 0.05714 
108.264931 0.005501 
109.10144 0.129048 
111.080643 0.028361 
113.441765 0.005312 
113.768211 0.044331 
114.088692 0.026939 
114.091499 0.006973 
114.2388 0.007317 
114.723465 0.008873 
114.948631 0.954649 
116.914841 0.00718 
116.948753 0.126006 
116.986061 0.193089 
117.917229 1.553006 
118.925407 0.060096 
118.947479 0.125756 
120.94072 0.164299 
121.084106 0.026484 
121.101418 0.112763 
121.349449 0.057282 
121.419945 0.005834 
121.783401 0.02606 
122.941063 5.143135 
123.043716 0.006098 
123.116859 0.030967 
124.044891 0.006574 
124.112167 0.006166 
124.936569 1.179945 
125.096436 0.018275 
129.50322 0.033248 
131.085693 0.013326 
131.379272 0.006082 
132.338058 0.057936 
132.924438 0.005876 
132.940445 0.122412 
132.958313 1.661921 
133.922867 0.196212 
133.948669 0.7032 
134.9198 3.832316 
134.941101 0.329381 
134.958725 0.146773 
135.116776 0.056498 
135.927643 3.468247 
135.943634 0.059062 
135.949112 0.631302 
135.966446 0.448625 
136.956589 3.04693 
137.943527 0.215829 
138.127899 0.006504 
138.95192 0.526296 
139.112 0.005955 
140.951706 0.064758 
144.068878 0.006166 
145.187027 0.058816 
145.578949 0.00655 
146.280975 0.012532 
146.940948 0.011797 
147.043976 0.700173 
147.116623 0.005755 
148.047516 0.018968 
148.956024 0.893877 
148.971786 33.914482 
149.05986 0.054052 
149.132751 0.05228 
149.943222 1.790707 
149.972931 4.432727 
149.974686 4.600651 
150.951019 15.416953 
150.967514 6.806563 
150.972641 6.750066 
151.679977 0.010481 
151.864517 0.006286 
151.951416 0.013849 
151.969955 0.702706 
152.143356 0.005738 
152.30983 0.010785 
152.930389 0.637986 
152.951431 12.319844 
152.967346 2.377803 
153.018097 1.309828 
153.920166 0.030717 
153.938217 1.144614 
153.959335 5.141414 
154.021515 0.020901 
154.123856 0.006174 
154.946838 2.633827 
154.967865 0.008182 
155.954605 1.046236 
156.488937 0.026113 
158.880463 0.047001 
159.113052 0.005292 
161.132812 0.005525 
162.951004 1.898692 
163.140976 0.006575 
163.148117 0.306521 
163.942688 1.183364 
163.951218 0.101987 
163.969604 0.052135 
164.943344 0.068268 
164.951553 10.400486 
164.966919 0.138337 
165.920822 0.010939 
165.938126 19.535223 
165.958801 0.031078 
166.939407 0.099808 
166.94693 2.174513 
166.956772 0.012595 
166.966629 0.467154 
166.982315 4.921924 
167.143036 0.005383 
167.95372 7.321209 
167.984741 0.590415 
168.954086 0.127862 
168.961594 4.621436 
168.98291 11.933382 
169.985886 0.030462 
170.962051 2.479658 
170.969833 0.0504 
170.977966 2.673363 
171.028824 0.043119 
172.957489 0.104652 
173.132645 0.111464 
174.802948 0.026522 
175.881073 0.005827 
177.938156 1.639331 
177.947769 0.005443 
178.649109 0.012524 
178.939667 0.10139 
178.978409 0.792479 
179.935669 0.440504 
180.961456 1.968015 
181.158661 0.144742 
181.915161 0.811657 
181.953293 0.444245 
181.96315 0.160996 
181.996185 0.013715 
182.702255 0.006255 
182.944534 0.012255 
182.962219 9.669124 
182.998276 0.0533 
183.930786 0.076835 
183.948715 9.092258 
183.968857 0.429961 
184.957428 2.189242 
185.949448 1.012504 
185.964386 8.834353 
185.973694 0.101819 
186.965363 0.00752 
187.944412 0.008672 
189.735092 0.008074 
191.641541 0.007065 
191.964661 0.712019 
192.961624 94.55658 
193.964096 40.089363 
193.979233 0.009217 
194.940109 0.812464 
194.962677 47.793022 
194.983246 0.057444 
195.936188 5.19109 
195.948502 0.752706 
195.959473 1.600587 
195.966324 1.310731 
196.169891 0.012724 
196.697403 0.007844 
196.957458 11.690548 
196.977509 0.059771 
197.946838 1.844646 
197.964081 0.118302 
199.310333 0.054804 
199.925888 0.467547 
199.980667 0.008602 
201.164169 0.006011 
201.958847 0.117657 
203.472275 0.04989 
207.524033 0.009158 
208.206223 0.055319 
209.191101 0.008449 
209.975296 0.153871 
210.972061 40.055447 
211.188766 0.044703 
211.95192 0.466813 
211.974411 18.241405 
212.200745 0.050706 
212.933975 1.598751 
212.950394 1.153801 
212.972672 66.293701 
213.946548 10.365402 
213.975616 2.059864 
214.949463 0.091117 
214.967941 14.211038 
215.796127 0.627303 
215.81575 0.268529 
215.82428 0.035387 
215.95816 0.085735 
216.642532 0.006199 
216.836319 0.00559 
217.104523 0.008197 
217.54425 0.007181 
223.319565 0.005593 
224.987869 1.499879 
225.990219 0.445478 
226.178452 0.006177 
226.964386 0.142558 
226.988007 2.190587 
227.962585 0.023482 
228.196243 0.030244 
228.928101 0.008399 
228.983566 0.251357 
230.983307 1.08349 
232.090347 0.007543 
232.978775 0.032201 
240.231583 0.030487 
241.971985 0.007268 
242.047333 0.077412 
244.974838 0.016123 
246.071442 0.032456 
250.465836 0.007013 
252.607605 0.0356 
254.211533 0.12345 
254.248276 0.006829 
255.214706 0.005862 
256.625275 0.005794 
257.412842 0.004897 
259.190765 0.00721 
259.828613 0.007299 
260.057861 0.568811 
261.043152 0.010338 
261.167389 0.030973 
271.059814 2.070111 
271.115112 0.008887 
271.151245 0.078096 
271.187378 0.020507 
271.318665 0.051219 
271.777679 0.007149 
272.06311 1.275832 
272.258087 0.952627 
272.294556 0.070693 
272.976105 0.007398 
273.076508 0.786206 
273.130951 0.288293 
273.167114 1.559529 
273.261597 0.090622 
274.078583 0.088569 
274.136841 0.009173 
274.170441 0.139315 
274.273499 0.048775 
275.109833 0.499272 
275.146362 0.296235 
281.395355 0.024814 
281.42337 0.011313 
282.338531 0.048708 
285.25647 0.030952 
END IONS

