BEGIN IONS
PEPMASS=271.061
CHARGE=1+
COMPOUNDNAME=Naringenin
LIBRARYQUALITY=3
SMILES=N/A
INCHIKEY=FTVWIRXFELQLPI-UHFFFAOYSA-N
INCHI=InChI=1S/C15H12O5/c16-9-3-1-8(2-4-9)13-7-12(19)15-11(18)5-10(17)6-14(15)20-13/h1-6,13,16-18H,7H2
MSLEVEL=2
SOURCE_INSTRUMENT=N/A-ESI-QFT
FILENAME=library_mgf.mgf
SEQ=*..*
IONMODE=negative
ORGANISM=MONA
NAME=Naringenin [M-H]-
PI=MoNA
DATACOLLECTOR=MoNA:VF-NPL-QEHF013812
PUBMED=N/A
SUBMITUSER=mwang87
TAGS=
SPECTRUMID=CCMSLIB00004704875
SCANS=13812
50.123138 0.027663 
50.704277 0.029449 
51.190086 0.024329 
51.545074 0.023692 
51.755402 0.02979 
51.948975 0.02197 
52.053425 0.031235 
52.117405 0.019212 
52.958065 0.029676 
53.122173 0.021063 
53.301746 0.022072 
53.468197 0.02613 
53.804024 0.021677 
54.18647 0.032 
54.68029 0.025706 
54.86087 0.023605 
55.552216 0.020266 
56.357403 0.022733 
56.583092 0.015921 
57.418629 0.028518 
57.491943 0.027261 
57.743748 0.02172 
57.79821 0.025841 
58.098232 0.026554 
58.327904 0.026517 
59.394894 0.02858 
59.544605 0.025314 
59.784317 0.025144 
60.372341 0.024147 
60.581776 0.029268 
61.071259 0.02775 
61.588207 0.031723 
62.006935 0.249754 
62.010151 0.040588 
63.013187 0.025102 
63.022675 23.498098 
63.142258 0.023632 
63.352692 0.025284 
64.026009 0.774741 
64.530884 0.027205 
64.577858 0.028418 
64.67749 0.030377 
64.75985 0.026733 
64.79129 0.01872 
64.848824 0.032486 
64.925858 0.026471 
64.992027 0.051622 
65.00193 41.342361 
65.201736 0.022981 
65.481888 0.019648 
66.005257 1.383734 
66.363548 0.027034 
66.428513 0.034339 
66.525116 0.026207 
66.53511 0.030751 
66.839478 0.019199 
67.216942 0.027393 
67.637985 0.029901 
68.702126 0.027208 
68.996849 0.83594 
70.542953 0.026004 
70.598999 0.028505 
71.145065 0.036212 
71.75441 0.025056 
72.559029 0.025934 
73.375458 0.03196 
73.495384 0.01719 
73.919998 0.027233 
74.834816 0.024525 
75.395699 0.023209 
75.559044 0.017961 
76.200027 0.02954 
76.666565 0.032545 
78.337296 0.029648 
78.446144 0.017138 
79.268295 0.028256 
80.656921 0.027543 
80.714325 0.040295 
81.03334 0.065928 
81.953728 0.025257 
83.012527 20.297949 
83.529076 0.022207 
83.882416 0.025013 
84.015862 0.395102 
84.222389 0.033763 
84.637253 0.025326 
85.096352 0.026984 
85.450066 0.028801 
87.533302 0.033273 
89.271507 0.026281 
89.304436 0.02457 
89.633453 0.02693 
90.869392 0.020836 
93.03331 10.307789 
93.359917 0.037479 
93.638092 0.027339 
93.681931 0.029302 
94.036613 0.3114 
94.483292 0.0283 
95.01236 0.086885 
95.09156 0.030297 
96.452087 0.031238 
96.59671 0.02178 
97.067139 0.023541 
97.605164 0.0298 
97.622231 0.027714 
97.760345 0.020666 
99.599915 0.024615 
100.720261 0.036558 
101.687721 0.018473 
101.844849 0.030812 
104.148254 0.025407 
107.012642 27.542156 
107.328018 0.036167 
107.393433 0.025086 
107.542923 0.022952 
108.015976 1.380537 
108.020271 0.651771 
108.991798 0.032242 
109.028275 0.46725 
109.416153 0.029559 
109.474525 0.025921 
109.794968 0.033863 
111.714607 0.033656 
113.387192 0.026457 
117.033447 1.380965 
118.036392 0.049734 
119.024498 0.038537 
119.049049 100.0 
120.052414 7.903466 
121.028244 0.881176 
121.633781 0.023053 
122.485443 0.030524 
123.798134 0.027849 
125.023254 0.028344 
125.712486 0.027582 
126.395813 0.028707 
126.70266 0.029378 
127.653976 0.032083 
128.454346 0.028302 
131.441437 0.028844 
133.028534 0.27702 
133.658981 0.038239 
133.973297 0.023973 
135.044571 0.028115 
137.023331 0.525909 
139.240494 0.019769 
140.252228 0.029719 
142.046082 0.03009 
142.114105 0.018292 
142.53862 0.029902 
143.049149 1.945821 
144.053009 0.034051 
145.028503 2.059827 
149.547104 0.020678 
149.554306 0.017145 
151.002655 15.361955 
151.263458 0.029435 
152.006058 0.853645 
153.34256 0.028955 
154.259567 0.021776 
157.065048 0.071782 
158.075653 0.03044 
158.27002 0.018803 
161.059753 2.528186 
163.618744 0.029944 
164.197021 0.033035 
164.272354 0.029595 
165.018433 1.346595 
166.024002 0.032118 
167.049057 0.066395 
167.459152 0.02282 
167.595291 0.029089 
169.012573 0.030433 
170.276596 0.026223 
177.018356 2.470557 
178.172852 0.017102 
180.869125 0.028888 
181.422668 0.029775 
182.461929 0.026171 
183.463928 0.0297 
185.060043 1.163927 
185.325882 0.026426 
185.712494 0.026886 
187.039444 4.320153 
188.042908 0.060499 
192.127029 0.027684 
196.118698 0.023043 
197.079453 0.03647 
198.034851 0.026146 
198.191513 0.03421 
200.563538 0.026149 
201.055038 0.024665 
202.582062 0.031375 
208.225388 0.030615 
210.112411 0.033444 
213.259689 0.034029 
219.802155 0.26463 
225.592957 0.028874 
229.051117 0.041058 
237.626938 0.033565 
245.0793 0.028786 
245.863678 0.021591 
247.44397 0.02632 
247.881363 0.03041 
250.818008 0.032125 
251.911896 0.032084 
260.55426 0.02591 
260.718994 0.032809 
272.37027 0.024629 
273.012848 0.027856 
274.266266 0.03299 
279.832001 0.02125 
279.901489 0.033281 
293.467468 0.029409 
293.802246 0.025247 
END IONS

