BEGIN IONS
PEPMASS=895.481
CHARGE=1+
COMPOUNDNAME=Pesticide4_Avermectin B1b_C48H72O14_(1'R,2S,4'S,5S,6R,8'R,10'E,12'S,13'S,14'E,16'E,20'R,21'R,24'S)-6-[(2S)-2-Butanyl]-21',24'-dihydroxy-5,11',13',22'-tetramethyl-2'-oxo-5,6-dihydrospiro[pyran-2,6'-[3,7,19]trioxatetracyclo[15.6.1.1~4,8~.0~20,24~]pentacosa[10,14,16,22]tetraen]-12'-yl 2,6-dideoxy-4-O-(2,6-dideoxy-3-O-methyl-alpha-L-arabino-hexopyranosyl)-3-O-methyl-alpha-L-arabino-hexopyranoside
LIBRARYQUALITY=1
SMILES=CCC(C)C1C(C=CC2(O1)CC3CC(O2)CC=C(C(C(C=CC=C4COC5C4(C(C=C(C5O)C)C(=O)O3)O)C)OC6CC(C(C(O6)C)OC7CC(C(C(O7)C)O)OC)OC)C)C
INCHIKEY=RRZXIRBKKLTSOM-XPNPUAGNSA-N
INCHI=InChI=1S/C48H72O14/c1-11-25(2)43-28(5)17-18-47(62-43)23-34-20-33(61-47)16-15-27(4)42(26(3)13-12-14-32-24-55-45-40(49)29(6)19-35(46(51)58-34)48(32,45)52)59-39-22-37(54-10)44(31(8)57-39)60-38-21-36(53-9)41(50)30(7)56-38/h12-15,17-19,25-26,28,30-31,33-45,49-50,52H,11,16,20-24H2,1-10H3/b13-12+,27-15+,32-14+/t25-,26-,28-,30-,31-,33+,34-,35-,36-,37-,38-,39-,40+,41-,42-,43+,44-,45+,47+,48+/m0/s1
MSLEVEL=2
SOURCE_INSTRUMENT=-Q-Exactive Plus Orbitrap Res 14k
FILENAME=Pesticide_Mix4_pos_14k.mzXML
SEQ=*..*
IONMODE=positive
ORGANISM=GNPS-COLLECTIONS-PESTICIDES-POSITIVE
NAME=Pesticide4_Avermectin B1b_C48H72O14_(1'R,2S,4'S,5S,6R,8'R,10'E,12'S,13'S,14'E,16'E,20'R,21'R,24'S)-6-[(2S)-2-Butanyl]-21',24'-dihydroxy-5,11',13',22'-tetramethyl-2'-oxo-5,6-dihydrospiro[pyran-2,6'-[3,7,19]trioxatetracyclo[15.6.1.1~4,8~.0~20,24~]pentacosa[10,14,16,22]tetraen]-12'-yl 2,6-dideoxy-4-O-(2,6-dideoxy-3-O-methyl-alpha-L-arabino-hexopyranosyl)-3-O-methyl-alpha-L-arabino-hexopyranoside M+Na
PI=Dorrestein/Touboul
DATACOLLECTOR=lfnothias
PUBMED=n/a
SUBMITUSER=mwang87
TAGS=
SPECTRUMID=CCMSLIB00001058858
SCANS=4512
73.065201 18009.695312 
79.055016 11098.319336 
81.070244 37293.859375 
86.995056 7511.86084 
93.069702 39892.523438 
95.049324 38250.347656 
95.085373 8711.758789 
107.086151 8214.083984 
109.027336 9601.228516 
109.064064 15119.341797 
109.101883 35404.160156 
113.059959 35765.535156 
113.415421 7421.469238 
113.829048 8380.365234 
121.101624 15023.655273 
123.0811 9777.766602 
123.117058 98280.445312 
132.474518 8444.836914 
135.042236 31941.654297 
139.073044 77775.398438 
139.160614 9395.814453 
151.073792 30375.798828 
151.112549 10757.476562 
153.052948 96316.96875 
167.067993 51381.164062 
169.122742 8353.836914 
183.063431 135576.03125 
185.080002 13258.913086 
191.105453 61530.210938 
195.12738 10309.983398 
217.488251 8116.118164 
237.934158 8274.321289 
239.090652 9261.413086 
240.113434 88817.296875 
241.119797 15257.663086 
251.036224 8727.842773 
305.173798 49613.035156 
311.146088 42766.410156 
327.193207 90747.515625 
360.99826 9679.868164 
449.253815 66825.820312 
455.23822 52616.816406 
470.190338 9065.320312 
521.291382 14497.151367 
568.210938 10556.370117 
607.327209 13260.525391 
722.549133 9548.668945 
724.265503 10732.234375 
751.406555 34154.027344 
889.610962 11392.798828 
895.47876 847078.5 
896.470947 15158.244141 
END IONS

