BEGIN IONS
PEPMASS=472.0
CHARGE=1+
COMPOUNDNAME=Massbank:KO003830 Puromycin
LIBRARYQUALITY=3
SMILES=COc(c4)ccc(c4)CC(N)C(=O)NC(C(CO)3)C(O)C(O3)n(c2)c(n1)c(n2)c(N(C)C)nc1
INCHIKEY=RXWNCPJZOCPEPQ-UHFFFAOYSA-N
INCHI=1S/C22H29N7O5/c1-28(2)19-17-20(25-10-24-19)29(11-26-17)22-18(31)16(15(9-30)34-22)27-21(32)14(23)8-12-4-6-13(33-3)7-5-12/h4-7,10-11,14-16,18,22,30-31H,8-9,23H2,1-3H3,(H,27,32)/t14-,15+,16+,18+,22+/m0/s1
MSLEVEL=2
SOURCE_INSTRUMENT=ESI-LC-ESI-QQ
FILENAME=Massbank_ESI_positive_8_1_2014_peaks.mgf
SEQ=*..*
IONMODE=Positive
ORGANISM=MASSBANK
NAME=Massbank:KO003830 Puromycin [M+H]+
PI=Putative Massbank Match
DATACOLLECTOR=Massbank
PUBMED=N/A
SUBMITUSER=mwang87
TAGS=
SPECTRUMID=CCMSLIB00000220186
SCANS=9627
68.8 19802.0 
84.0 54455.5 
89.9 183168.5 
97.0 559406.5 
100.2 44554.5 
102.4 84158.5 
114.1 252475.5 
115.3 99010.0 
118.0 232673.5 
119.0 24752.5 
121.0 440594.5 
124.3 257426.0 
129.4 34653.5 
131.9 173267.5 
132.1 133663.5 
135.4 237624.0 
142.1 668317.5 
150.2 98208019.0 
154.0 34653.5 
160.2 15787144.5 
160.9 297030.0 
163.4 44554.5 
164.3 87673355.0 
165.0 44554.5 
165.9 24752.5 
168.0 14851.5 
174.5 84158.5 
175.1 79208.0 
176.0 49505.0 
178.3 316832.0 
179.3 89109.0 
186.8 39604.0 
188.2 158416.0 
189.3 59406.0 
190.1 69307.0 
192.5 1128714.0 
195.5 366337.0 
196.2 207921.0 
196.8 29703.0 
199.1 69307.0 
202.5 702971.0 
203.9 54455.5 
204.6 29703.0 
206.3 168317.0 
211.6 39604.0 
214.2 79208.0 
216.3 103960.5 
220.5 207921.0 
221.5 44554.5 
222.3 331683.5 
228.5 113861.5 
229.4 103960.5 
230.1 44554.5 
231.3 39604.0 
232.2 1257427.0 
233.1 178218.0 
233.7 44554.5 
244.6 69307.0 
246.3 514852.0 
248.2 44554.5 
249.5 24752.5 
250.5 153465.5 
250.9 39604.0 
256.3 34653.5 
260.5 84158.5 
261.1 123762.5 
262.4 341584.5 
263.2 188119.0 
264.2 1693071.0 
274.7 574258.0 
281.5 1767328.5 
291.5 4405945.0 
292.5 8514860.0 
295.5 227723.0 
305.7 193069.5 
307.4 24752.5 
308.8 396040.0 
309.5 210554666.0 
454.3 1787130.5 
472.7 11356447.0 
END IONS

