BEGIN IONS
PEPMASS=359.089
CHARGE=1+
COMPOUNDNAME=Mycophenolic Acid
LIBRARYQUALITY=3
SMILES=N/A
INCHIKEY=HPNSFSBZBAHARI-RUDMXATFSA-N
INCHI=InChI=1S/C17H20O6/c1-9(5-7-13(18)19)4-6-11-15(20)14-12(8-23-17(14)21)10(2)16(11)22-3/h4,20H,5-8H2,1-3H3,(H,18,19)/b9-4+
MSLEVEL=2
SOURCE_INSTRUMENT=N/A-ESI-QFT
FILENAME=library_mgf.mgf
SEQ=*..*
IONMODE=positive
ORGANISM=MONA
NAME=Mycophenolic Acid [M+K]+
PI=MoNA
DATACOLLECTOR=MoNA:VF-NPL-QEHF004798
PUBMED=N/A
SUBMITUSER=mwang87
TAGS=
SPECTRUMID=CCMSLIB00004695861
SCANS=4798
50.150719 0.018003 
50.191742 0.003622 
50.56469 0.018437 
50.600998 0.024608 
50.965775 0.02042 
51.422401 0.017315 
51.454094 0.008016 
51.824921 0.017832 
52.118835 0.014736 
52.269131 0.017864 
52.57077 0.003526 
52.946606 0.005594 
53.341763 0.016256 
53.500851 0.017162 
53.51548 0.018387 
53.739838 0.021323 
53.857895 0.015466 
54.21796 0.009322 
54.486671 0.003696 
54.748619 0.002822 
55.901501 0.022592 
55.928177 0.010914 
56.135769 0.017997 
57.023529 0.021872 
57.07069 0.007116 
57.215683 0.014827 
57.655945 0.003554 
58.065933 0.058629 
58.20993 0.003109 
58.553196 0.022818 
58.580627 0.01931 
58.662678 0.003867 
59.03804 0.023062 
59.676903 0.017941 
59.774982 0.022316 
60.045135 0.005972 
60.215099 0.016939 
60.250828 0.018142 
60.640709 0.009035 
60.668491 0.029872 
60.743992 0.00415 
61.236504 0.003027 
61.286999 0.018233 
61.489929 0.003448 
61.829239 0.027038 
63.026081 0.00943 
63.064377 0.010116 
63.088173 0.005329 
63.946011 0.017847 
64.01329 0.024297 
64.23333 0.012488 
64.907494 0.004763 
65.334335 0.022962 
65.866638 0.003345 
66.132156 0.006093 
67.032791 0.025129 
67.054901 0.007952 
67.137917 0.016513 
67.779228 0.012548 
68.221588 0.022261 
68.592873 0.031465 
68.618401 0.02285 
68.906715 0.013557 
68.922752 0.008855 
68.980202 0.003181 
69.046402 0.012592 
69.07074 0.005182 
69.733543 0.014823 
70.06601 0.003857 
70.517609 0.011511 
70.627235 0.019189 
71.086227 0.004383 
71.125328 0.003328 
71.319672 0.005148 
72.737061 0.003383 
72.818695 0.002938 
72.865204 0.01017 
73.047539 0.008558 
73.121933 0.003354 
73.425964 0.012489 
73.645775 0.002665 
74.919952 0.017506 
75.245903 0.002784 
76.076454 0.016438 
76.404022 0.015906 
76.480431 0.005024 
76.483322 0.008257 
76.887527 0.015953 
76.919731 0.007284 
77.026306 0.003772 
77.11721 0.012633 
77.834061 0.005104 
79.218124 0.003042 
79.796783 0.003841 
79.832031 0.010367 
80.273895 0.012072 
80.441643 0.020253 
80.588524 0.028577 
81.07048 0.023991 
81.476173 0.003444 
81.587234 0.002752 
82.185623 0.004537 
83.708504 0.010992 
83.804543 0.014201 
84.125343 0.008921 
84.320625 0.019163 
84.465782 0.009855 
85.029091 0.026069 
85.040222 0.049091 
85.196152 0.002793 
85.447014 0.009472 
86.323875 0.019141 
86.902252 0.00886 
87.044731 0.161495 
87.079079 0.005304 
88.076302 0.014709 
88.861572 0.017367 
89.060272 0.109868 
89.968674 0.023086 
90.173012 0.010294 
91.054909 0.226844 
91.057907 0.023865 
91.060493 0.02546 
91.276833 0.003862 
92.137848 0.016638 
93.443596 0.024297 
93.721992 0.026113 
94.023872 0.004049 
95.086151 0.013308 
95.938965 0.027346 
96.0578 0.009277 
96.811852 0.01638 
97.418114 0.003381 
98.136658 0.008455 
99.250587 0.011102 
99.99752 0.018354 
100.593956 0.025477 
100.879562 0.007909 
101.019951 0.003203 
101.075653 0.023851 
102.062042 0.008107 
102.131775 0.019556 
102.175713 0.027404 
102.498184 0.008858 
102.80365 0.015963 
102.898338 0.009219 
103.039452 0.045024 
103.386353 0.010623 
104.55584 0.010209 
104.825188 0.009972 
105.84388 0.003157 
105.999596 0.009545 
106.086655 0.005672 
106.582085 0.00326 
107.33403 0.019194 
107.718475 0.014208 
107.859482 0.012556 
108.007675 0.025898 
109.101593 0.011799 
109.147903 0.00811 
109.580673 0.002922 
110.649178 0.026465 
111.080833 0.00313 
111.716782 0.025679 
112.119293 0.016068 
112.13092 0.009138 
114.766869 0.015257 
115.152748 0.024796 
116.879082 0.025771 
118.061134 0.002865 
118.088455 0.010527 
119.085861 0.258372 
119.365776 0.012689 
120.710724 0.003207 
121.719162 0.015075 
122.447723 0.016905 
123.326851 0.023545 
124.638702 0.015582 
125.714783 0.017361 
125.746445 0.022348 
125.762573 0.019944 
126.70591 0.017683 
127.039398 0.003688 
128.671387 0.018783 
129.419022 0.002786 
129.540848 0.00419 
129.586441 0.0042 
130.017776 0.002901 
131.070435 0.008408 
131.23494 0.022799 
133.086151 0.028158 
134.835754 0.019219 
135.042511 0.019128 
135.239029 0.027026 
137.416748 0.003753 
138.61702 0.005434 
138.95105 0.027687 
139.968155 0.003876 
140.7323 0.018557 
144.115204 0.004265 
145.049789 0.003206 
146.58757 0.003356 
147.790115 0.008887 
148.815018 0.003593 
149.512756 0.017574 
150.870209 0.025088 
151.803848 0.012933 
153.072861 0.014026 
154.617752 0.012914 
154.910538 0.009769 
156.994766 0.02683 
159.427139 0.00358 
159.695541 0.031088 
160.36554 0.013345 
162.001541 0.003615 
166.583694 0.028065 
170.410828 0.006304 
171.186707 0.012656 
176.302322 0.02673 
177.842438 0.01887 
181.02446 0.003843 
185.358047 0.005384 
189.0439 0.070919 
199.036682 1.680823 
199.756256 0.009432 
200.040115 0.033177 
202.887878 0.003522 
205.524551 0.02759 
207.054749 0.040142 
207.065384 1.060724 
207.80014 0.023369 
209.964584 0.003018 
211.984726 0.021028 
214.024033 0.321044 
214.32048 0.004331 
214.471558 0.388602 
214.484085 0.844382 
214.49852 0.347531 
215.002075 0.003583 
217.047211 0.206321 
219.175125 0.013482 
222.898804 0.068387 
224.623856 0.024742 
225.761642 0.020013 
227.031799 0.029968 
229.047302 100.0 
230.050674 22.807198 
231.026505 0.974732 
231.05246 2.399594 
232.034225 0.5824 
232.054977 0.007251 
232.096786 0.011448 
232.151001 0.004718 
233.012222 0.009193 
233.081039 0.087783 
234.218781 0.015618 
236.987289 0.004263 
238.071518 0.01324 
238.913925 0.010162 
240.909439 0.31805 
243.870438 0.016972 
244.990387 0.019167 
245.042435 0.099724 
245.081833 0.010102 
246.112076 0.011399 
247.057999 0.125616 
247.096558 0.685149 
248.100067 0.052161 
248.469635 0.029014 
249.403534 0.019806 
251.022903 0.536765 
253.038467 0.004029 
268.300293 0.093852 
269.033417 3.102362 
269.078217 0.012272 
270.036652 0.095755 
270.546448 0.026309 
271.095032 0.009103 
271.272125 0.029076 
276.679932 0.02841 
279.586853 0.005884 
280.521576 0.011884 
281.009064 0.023146 
281.032928 0.450446 
281.235626 0.014144 
282.039734 0.00855 
283.049011 0.695721 
283.094543 0.004198 
284.097778 0.006389 
284.888885 0.029864 
285.073364 1.040654 
285.112305 0.019929 
286.077087 0.029432 
286.160614 0.022194 
286.315063 0.010592 
287.043854 0.818117 
288.048462 0.003885 
295.04895 0.246849 
295.983734 0.012285 
296.295074 0.008644 
299.044067 0.147349 
299.089264 1.278184 
299.843445 0.024085 
300.092102 0.028386 
301.05954 0.132046 
301.826904 0.007335 
303.090149 0.013588 
308.682434 0.019287 
312.839111 0.007872 
313.059937 0.028472 
313.140259 0.003618 
315.085114 0.187458 
315.688843 0.012166 
317.348145 0.003933 
317.840973 0.35791 
319.836578 1.746514 
327.826477 0.0081 
328.834534 0.039634 
333.101318 0.644657 
333.816803 0.005319 
334.103027 0.004087 
334.843903 0.147219 
335.851074 0.24402 
336.839081 1.412267 
337.846771 1.243785 
340.357269 0.032868 
341.070435 0.00889 
341.099487 1.034709 
341.136078 0.181025 
342.104462 0.031207 
343.079224 3.128855 
343.101868 0.153713 
344.08371 0.525443 
344.10495 0.004507 
344.976349 0.166786 
345.224579 0.027963 
345.976227 0.023436 
351.111572 2.678655 
352.114929 0.274674 
352.853668 0.015408 
354.849792 0.200739 
357.130951 78.926003 
357.275787 0.023444 
358.134094 34.009274 
358.22934 0.012495 
358.34613 0.023659 
358.368103 1.486127 
358.844177 0.18333 
359.081299 0.755157 
359.110077 3.78332 
359.136688 5.139352 
359.202637 0.02822 
359.236633 0.003957 
359.371216 0.253721 
360.083954 0.019214 
360.113586 0.514681 
360.138458 0.322735 
360.361969 0.417774 
360.83902 1.565062 
361.113129 0.033553 
365.125092 0.004541 
367.841034 0.074209 
369.121948 0.93702 
369.612213 0.022838 
369.836761 0.715526 
370.124695 0.026848 
376.226868 0.019798 
376.854645 0.065292 
377.090973 1.300618 
378.093567 0.061912 
378.434662 0.018992 
378.849731 0.597357 
383.290924 0.016103 
END IONS

