BEGIN IONS
PEPMASS=485.293
CHARGE=1+
COMPOUNDNAME=TOBRAMYCIN
LIBRARYQUALITY=3
SMILES=N/A
INCHIKEY=NLVFBUXFDBBNBW-PBSUHMDJSA-N
INCHI=InChI=1S/C18H37N5O9/c19-3-9-8(25)2-7(22)17(29-9)31-15-5(20)1-6(21)16(14(15)28)32-18-13(27)11(23)12(26)10(4-24)30-18/h5-18,24-28H,1-4,19-23H2/t5-,6+,7+,8-,9+,10+,11-,12+,13+,14-,15+,16-,17+,18+/m0/s1
MSLEVEL=2
SOURCE_INSTRUMENT=N/A-ESI-QFT
FILENAME=library_mgf.mgf
SEQ=*..*
IONMODE=positive
ORGANISM=MONA
NAME=TOBRAMYCIN [M+NH4]+
PI=MoNA
DATACOLLECTOR=MoNA:VF-NPL-QEHF011822
PUBMED=N/A
SUBMITUSER=mwang87
TAGS=
SPECTRUMID=CCMSLIB00004702885
SCANS=11822
50.477875 0.361459 
51.029438 0.496359 
51.198532 0.381059 
51.24601 0.359932 
51.305016 0.513923 
51.444134 0.257071 
51.578972 0.448451 
51.949158 0.399949 
52.205734 0.189715 
52.430828 0.45088 
52.863827 0.289696 
53.003071 0.186166 
53.129803 0.360126 
53.374439 0.393356 
53.446957 0.424715 
53.832615 0.460703 
53.847713 0.278297 
54.404068 0.320684 
55.018578 0.987959 
55.054966 8.887529 
55.733902 0.566497 
56.050224 0.663638 
56.235619 0.616314 
56.701088 0.16215 
56.834137 0.550208 
56.965462 0.679291 
57.034271 6.355712 
57.069065 0.321473 
57.070625 52.881886 
57.072205 0.241321 
57.224194 0.608422 
58.065834 1.89921 
58.073971 0.806527 
59.04987 68.294945 
59.061111 2.336743 
59.58979 0.160556 
59.892395 0.657799 
59.990974 0.887443 
60.04512 0.449438 
60.053223 1.095995 
60.21357 0.651183 
60.268177 0.46581 
60.429626 0.313397 
61.011375 5.121052 
61.717468 0.579698 
62.01918 4.545187 
62.579613 0.344037 
62.982433 3.212139 
63.467094 0.149617 
64.254799 0.153911 
64.835609 0.523064 
64.955681 0.235496 
65.059769 0.423162 
65.843712 0.176002 
66.307693 0.224038 
67.054893 15.838406 
67.056694 0.206448 
67.078217 0.399997 
67.881798 0.454986 
67.920464 0.156473 
68.050194 0.165925 
69.034081 0.936896 
69.070557 10.999386 
69.113655 0.613435 
70.051559 0.394276 
70.065773 0.688138 
70.744537 0.249391 
71.049835 1.433502 
71.086166 16.748596 
71.675285 0.159386 
71.917976 0.326543 
72.045052 0.918588 
72.081436 0.231534 
72.089531 0.281446 
72.307938 0.528964 
72.367805 0.401605 
73.029053 3.385895 
73.047295 0.665267 
73.065407 1.327381 
73.229553 0.438253 
73.463318 0.181304 
73.814285 0.37317 
74.06102 0.26977 
74.097076 0.152008 
74.557114 0.571471 
76.076424 0.487877 
76.30291 0.145737 
76.389771 0.237015 
76.826363 0.508379 
77.106689 0.594433 
78.985901 0.246695 
79.021812 5.43607 
79.054802 3.927802 
80.495255 0.52385 
80.948326 0.544557 
81.019348 0.355477 
81.034088 0.147399 
81.067947 0.203774 
81.070457 19.841133 
82.065407 0.197237 
82.073723 0.282375 
83.04969 0.706558 
83.086067 6.886342 
83.865868 0.274083 
83.876221 0.217966 
84.044952 0.221062 
84.081421 0.757708 
85.029015 0.315974 
85.040062 0.773642 
85.0653 1.483238 
85.101723 6.347692 
86.097038 0.657229 
87.044571 7.026052 
88.021866 1.453722 
88.076118 0.193212 
88.978653 0.248804 
89.060173 23.91143 
90.063599 0.536811 
91.054726 4.252478 
91.057854 11.932743 
92.057526 0.225081 
92.850838 0.480226 
93.07032 6.221738 
94.103203 0.14566 
94.799591 0.15527 
95.049515 0.557477 
95.085945 17.459259 
95.641289 0.512847 
96.081268 0.431405 
96.513748 0.189456 
97.065254 1.656365 
97.101578 5.152208 
97.944878 0.352968 
98.096886 0.180563 
98.105171 0.211623 
99.044395 0.935943 
99.080956 0.208594 
99.977585 0.399796 
100.076057 3.258594 
100.112541 0.419544 
101.003731 0.324431 
101.060051 22.308563 
101.433937 0.150813 
102.02903 0.60621 
102.055237 0.176676 
102.091675 9.288467 
103.039589 0.16609 
104.968941 0.370581 
105.070091 2.875734 
105.161446 0.228287 
106.065399 0.20868 
107.049637 0.242716 
107.085846 3.990987 
107.363297 0.531562 
108.081108 0.272115 
108.884659 0.6869 
109.065109 0.483458 
109.101433 7.426093 
109.513039 0.356224 
109.538834 0.1513 
110.104889 0.19232 
111.044388 0.160833 
111.08075 0.840761 
111.116798 0.252238 
112.075676 0.299996 
113.060081 0.442722 
113.604843 0.32197 
114.091476 0.194701 
114.343689 0.708406 
115.075485 0.197098 
116.053085 5.227388 
116.986198 0.759806 
117.070122 0.260626 
117.091049 0.556581 
119.085617 2.657074 
119.541687 0.241541 
120.080849 0.295261 
121.065002 0.946509 
121.101318 3.813226 
122.096924 0.217693 
123.080185 0.160968 
123.116943 4.610121 
123.839005 0.320664 
123.949875 0.543923 
125.096123 1.216059 
125.116753 0.159837 
127.994659 0.166136 
129.830261 0.575159 
130.159042 0.169292 
131.085495 1.331586 
132.080811 0.331712 
133.064758 1.28499 
133.085907 1.246941 
133.101181 1.770619 
133.118591 0.176114 
134.273224 0.140176 
134.996536 1.726725 
135.003662 0.290754 
135.043854 0.194965 
135.080429 7.066453 
135.116882 1.642923 
135.844894 0.359475 
137.095596 0.406056 
137.132462 1.915062 
140.14325 0.191835 
140.834015 0.357432 
140.926468 0.163287 
141.501312 0.383631 
142.348312 0.391828 
143.084778 0.477407 
143.801956 0.282037 
145.101395 0.944071 
146.096558 0.759501 
146.264389 0.440713 
146.445175 0.533245 
146.974777 0.159616 
147.116943 1.526219 
147.962067 0.6569 
149.060104 0.19011 
149.132629 0.376125 
150.651764 0.665532 
150.950958 0.98226 
150.968765 0.452093 
151.765106 0.588125 
152.989243 0.339894 
154.122803 0.618062 
155.084991 0.201962 
156.103134 0.154789 
156.138016 0.5009 
159.116791 0.229197 
159.124481 0.48848 
160.111908 0.497939 
161.095947 0.201015 
161.120499 0.251358 
161.132507 0.397185 
162.07576 0.170987 
162.565796 0.166356 
163.027069 0.260453 
163.107635 4.585561 
164.8508 0.166964 
164.920471 13.75157 
167.05513 0.531222 
168.961533 0.972037 
169.348907 0.158705 
170.956985 1.381953 
172.115067 0.211866 
173.096298 0.414188 
175.111755 0.799986 
175.24649 0.318279 
176.022079 0.293508 
176.9021 0.17493 
181.859634 0.611026 
185.378815 0.178755 
185.962006 0.522599 
186.927734 0.545921 
190.986557 0.63421 
191.002029 0.21658 
191.02211 0.42818 
191.060516 0.379569 
192.961945 0.274195 
194.999496 0.199061 
196.445084 0.398034 
197.483047 0.713044 
197.494751 0.599512 
198.995377 0.404817 
202.139252 0.394887 
203.052338 0.196842 
204.961884 3.197806 
205.987823 0.280706 
206.976913 0.269436 
207.054031 0.379695 
208.422974 0.253123 
210.184006 0.203633 
210.972137 0.322736 
213.51384 0.542749 
213.529984 21.159565 
215.621246 0.381472 
216.984283 0.167283 
219.103195 0.172765 
219.174347 2.161249 
220.90303 0.26189 
222.423157 0.52454 
222.898361 0.79913 
225.042847 7.263616 
226.042816 0.555753 
227.022141 0.630395 
227.039444 1.3435 
228.090439 0.23347 
229.001526 0.843555 
229.074493 0.459298 
230.902542 0.546105 
231.174088 0.201451 
233.812271 0.612092 
234.994919 2.356732 
235.092163 0.648659 
238.91423 0.187827 
239.132553 0.675536 
240.077789 0.225151 
240.909103 10.77815 
241.910645 0.216231 
242.907318 0.266996 
243.736526 0.359574 
244.883835 0.595707 
246.100739 0.180554 
246.826141 0.617806 
246.88765 0.27984 
246.938431 0.21278 
247.011765 0.357268 
251.032639 0.223507 
253.004715 0.371335 
257.628265 0.393249 
261.247314 0.421285 
262.894623 3.226362 
263.900604 0.605984 
264.910095 0.165712 
270.255005 0.473357 
270.899506 1.632415 
271.900055 0.23589 
273.103302 0.286476 
274.990814 0.202813 
279.916656 2.226282 
281.911774 26.627838 
282.915253 0.589366 
283.263153 2.672861 
283.913513 0.190771 
284.153259 0.566181 
285.008911 1.165897 
286.894562 5.524611 
287.895538 1.152673 
290.456604 0.361113 
290.946442 0.487006 
293.821136 0.204775 
295.703949 0.179049 
295.927429 0.620723 
299.06134 3.379633 
299.130463 0.673496 
301.058563 0.44138 
302.161743 0.263675 
303.148468 0.520371 
304.893341 1.678993 
304.905945 0.37986 
306.567078 0.42364 
306.892426 0.87066 
308.936218 2.736382 
309.83551 0.29537 
310.844208 0.445734 
311.830902 7.193561 
312.838593 12.094208 
317.820618 1.285502 
319.83548 0.180322 
322.914032 1.211419 
326.81778 0.240732 
327.846802 0.562601 
328.834381 0.189299 
329.439697 0.177626 
329.841034 8.65235 
330.921814 0.196779 
333.835297 0.894752 
334.84259 0.215692 
335.830811 16.406452 
336.838562 9.208748 
337.843536 0.297512 
338.842163 0.850775 
342.83371 0.392818 
344.828552 13.548703 
344.975983 1.539154 
348.00943 0.614753 
349.845673 0.227515 
350.946686 8.838467 
351.665009 0.170426 
351.846375 17.129835 
351.948151 0.767561 
352.848511 0.262882 
353.841125 100.0 
354.80368 0.819269 
354.84436 6.360344 
355.845551 0.461915 
360.838745 8.335301 
361.840546 3.841497 
362.841248 19.054459 
363.844208 0.265362 
364.909882 0.652685 
367.857574 2.341567 
369.834961 0.244344 
369.858337 1.079239 
371.852234 17.093697 
372.815399 1.363607 
372.853882 0.349616 
374.165863 0.190691 
378.849518 4.218047 
379.850983 1.678363 
380.851318 6.867828 
383.306183 0.30633 
385.170441 0.204914 
388.802673 0.180046 
396.843079 0.578424 
421.88678 0.161912 
429.316895 0.175033 
430.81012 0.510912 
431.818573 0.42388 
440.248383 0.262873 
447.347107 1.775065 
461.259583 0.167006 
478.999939 0.426937 
484.365997 0.244477 
484.486633 0.233817 
485.381134 30.423269 
486.384552 4.758483 
486.463989 0.529219 
486.502502 0.247134 
487.291077 0.252008 
487.323486 6.107586 
487.359253 78.422852 
510.440979 0.560303 
514.252075 0.382839 
END IONS

