BEGIN IONS
PEPMASS=193.13
CHARGE=1+
COMPOUNDNAME=Citrulline
LIBRARYQUALITY=3
SMILES=N/A
INCHIKEY=RHGKLRLOHDJJDR-BYPYZUCNSA-N
INCHI=InChI=1S/C6H13N3O3/c7-4(5(10)11)2-1-3-9-6(8)12/h4H,1-3,7H2,(H,10,11)(H3,8,9,12)/t4-/m0/s1
MSLEVEL=2
SOURCE_INSTRUMENT=N/A-ESI-QFT
FILENAME=library_mgf.mgf
SEQ=*..*
IONMODE=positive
ORGANISM=MONA
NAME=Citrulline [M+NH4]+
PI=MoNA
DATACOLLECTOR=MoNA:VF-NPL-QEHF026476
PUBMED=N/A
SUBMITUSER=mwang87
TAGS=
SPECTRUMID=CCMSLIB00004718019
SCANS=26476
50.739811 0.00973 
51.763073 0.017796 
52.451176 0.016066 
53.664169 0.016101 
53.667606 0.008535 
53.854134 0.015567 
53.953819 0.007272 
53.9702 0.014974 
54.053379 0.018016 
54.118092 0.015027 
54.952415 0.017066 
55.344559 0.019922 
56.173626 0.018954 
56.322159 0.007283 
56.934208 0.009749 
57.331856 0.020004 
57.779819 0.015177 
57.935146 0.898694 
58.244751 0.020218 
58.704964 0.011517 
58.748257 0.012707 
58.953781 0.021502 
58.99551 0.017957 
59.185143 0.017495 
60.019047 0.016338 
60.600368 0.011547 
61.01091 100.0 
61.176601 0.014544 
61.354046 0.018448 
62.014259 0.010944 
62.018726 0.688232 
62.305046 0.019351 
62.452259 0.011853 
62.561428 0.016232 
62.804764 0.024381 
63.006672 0.041682 
63.205151 0.017188 
63.513393 0.019317 
64.701385 0.015169 
65.796494 0.010734 
66.267677 0.016353 
66.471664 0.010569 
67.452148 0.006579 
67.826218 0.018536 
67.934883 0.008979 
67.963921 0.016524 
68.102158 0.015604 
68.243805 0.016906 
68.946426 0.006801 
69.36689 0.019011 
69.43869 0.011447 
69.694458 0.015016 
70.065239 0.014356 
70.154671 0.011428 
70.958038 0.065304 
71.883713 0.015084 
72.044357 0.020793 
72.192612 0.009202 
72.41774 0.016983 
72.958389 0.435001 
73.59729 0.010564 
74.019485 0.018925 
74.438362 0.011021 
74.5112 0.021776 
75.945389 2.574393 
75.955009 0.009598 
76.532494 0.018964 
76.611404 0.010708 
76.659721 0.014959 
77.401299 0.016256 
79.021217 0.024 
79.028481 0.014463 
79.611603 0.009956 
79.979446 0.020007 
80.233154 0.020023 
80.498596 0.019826 
81.069984 0.066841 
83.92981 0.075778 
84.061172 0.011773 
84.937996 0.020228 
85.661575 0.01433 
85.94561 0.008584 
85.966377 0.019513 
86.102104 0.014423 
86.385529 0.012338 
87.427132 0.019433 
87.945404 0.071184 
88.001213 0.022293 
88.06311 0.018654 
88.678596 0.019222 
89.059761 1.827054 
89.154091 0.01851 
90.914818 0.011013 
93.412384 0.012531 
93.834137 0.015547 
93.956017 0.943095 
94.262108 0.0159 
94.70787 0.015084 
94.775154 0.024675 
95.085632 0.122735 
95.300514 0.013875 
96.673836 0.01742 
97.920769 0.017934 
98.407181 0.015458 
98.975548 0.039336 
99.945335 0.015768 
100.075729 0.207921 
100.137703 0.016124 
101.040024 0.016177 
101.940453 0.012753 
102.914787 1.177981 
103.976654 0.237819 
104.930443 8.514157 
105.32605 0.012144 
105.955894 0.501456 
107.070518 0.008005 
107.085548 0.030786 
108.620697 0.020406 
108.982201 0.012753 
109.101242 0.013397 
111.142876 0.00812 
111.541779 0.017297 
112.961288 0.008902 
113.951256 0.008353 
114.598656 0.012082 
115.952171 0.013716 
116.948387 0.064527 
117.168884 0.019748 
117.956131 0.070051 
118.483513 0.021264 
119.001251 0.14434 
119.04451 0.016062 
119.049278 4.349359 
119.085793 0.027452 
119.337715 0.01571 
119.622086 0.019503 
119.754951 0.011724 
119.91758 0.170922 
120.052711 0.176123 
120.925377 0.576509 
120.940582 0.01232 
121.10144 0.010365 
122.627045 0.015522 
122.94101 30.12079 
123.48658 0.009914 
126.286667 0.010819 
128.750397 0.013554 
130.300583 0.01968 
130.943268 0.130637 
130.978241 0.018772 
131.956238 0.01693 
131.961365 0.641226 
132.936554 1.105814 
132.958344 0.709162 
133.086075 0.086463 
133.947906 0.010895 
134.940933 2.334682 
134.958725 10.929616 
135.116852 0.098777 
135.19516 0.015336 
135.943741 0.012923 
135.9487 2.120383 
135.961044 0.017783 
135.96666 5.697557 
136.477386 0.019811 
136.956726 8.092996 
137.011887 1.104648 
137.928116 3.344385 
138.012711 0.014466 
138.936035 0.274539 
139.531235 0.016806 
139.841782 0.017683 
140.951614 1.239511 
142.653366 0.020152 
145.065491 0.012015 
145.209183 0.019612 
145.988663 0.036238 
146.270264 0.011048 
146.940948 0.449362 
147.967148 0.045411 
147.975037 1.198821 
148.286331 0.013963 
148.971893 7.111915 
149.971832 0.215373 
150.660812 0.019379 
150.951385 0.008131 
150.972412 20.119698 
152.951614 84.248718 
152.969208 10.340839 
153.95932 91.153923 
154.967117 0.346204 
155.022171 0.067181 
155.963211 0.041698 
157.282639 0.010245 
158.185822 0.012554 
159.275299 0.016799 
160.286102 0.018948 
161.011826 2.871717 
162.012909 0.167249 
162.859268 0.021234 
162.947159 1.250372 
163.008667 0.029994 
163.955032 0.130913 
163.998871 0.813703 
164.931137 0.009287 
164.951584 8.663133 
165.548553 0.020424 
166.967087 0.84793 
166.98262 0.727919 
167.93869 1.157866 
167.956482 0.706713 
167.975052 0.947137 
168.98291 27.695168 
170.926025 0.016989 
170.962051 13.004357 
170.979782 0.667099 
172.563522 0.007712 
175.148087 0.230211 
176.941696 0.152399 
177.843765 0.009593 
177.888214 0.016985 
177.938232 0.404071 
178.978378 3.237618 
179.022369 14.516853 
179.938507 2.757818 
179.954819 0.012747 
180.023209 2.149981 
180.538086 0.020587 
180.957886 0.102974 
181.019547 1.536399 
181.027359 0.012953 
182.009109 0.01525 
182.79097 0.014552 
182.953125 0.014279 
182.962128 5.704701 
182.998352 0.101344 
184.255173 0.015965 
185.004379 0.009899 
185.949188 12.856853 
185.95813 0.182662 
191.142319 0.008657 
191.855026 0.011035 
191.964722 0.405599 
192.101868 0.03487 
192.138367 3.495767 
192.174698 0.206269 
192.961746 1.740428 
193.14183 0.283826 
193.158966 0.211502 
193.778717 0.012764 
194.117661 0.059349 
194.128494 0.128849 
194.153976 4.690119 
194.962128 17.448132 
194.972168 0.289783 
195.157486 0.090047 
195.948502 0.204758 
197.032913 1.222554 
197.949173 3.301688 
198.034531 0.047126 
199.029999 0.018944 
200.448578 0.009029 
204.389587 0.019175 
205.343903 0.018629 
207.799469 0.019451 
208.964767 0.022845 
209.975006 0.071532 
210.972214 0.527532 
211.928452 0.022156 
212.226974 0.011966 
212.448593 0.013544 
212.738693 0.015875 
212.972641 18.054935 
END IONS

