BEGIN IONS
PEPMASS=509.291
CHARGE=1+
COMPOUNDNAME=(2E,4E)-1-[(2R,6S,14S,22S,25R)-25-(3,3-dimethyloxiran-2-yl)-15-methyl-1,3,13,15-tetraazaheptacyclo[18.4.1.0�,?.0?,��.0?,��.0�?,��.0�?,��]pentacosa-7,9,11,16(21),17,19-hexaen-3-yl]hexa-2,4-dien-1-one
LIBRARYQUALITY=3
SMILES=N/A
INCHIKEY=XZFSMUXVAYCHFO-QREHLELFSA-N
INCHI=InChI=1S/C32H36N4O2/c1-5-6-7-15-24(37)35-18-16-31-21-12-8-9-13-22(21)33-28-32(31)17-19-36(29(31)35)26(27-30(2,3)38-27)20-11-10-14-23(25(20)32)34(28)4/h5-15,26-29,33H,16-19H2,1-4H3/b6-5+,15-7+/t26-,27?,28+,29+,31-,32-/m1/s1
MSLEVEL=2
SOURCE_INSTRUMENT=N/A-ESI-QFT
FILENAME=library_mgf.mgf
SEQ=*..*
IONMODE=positive
ORGANISM=MONA
NAME=(2E,4E)-1-[(2R,6S,14S,22S,25R)-25-(3,3-dimethyloxiran-2-yl)-15-methyl-1,3,13,15-tetraazaheptacyclo[18.4.1.0�,?.0?,��.0?,��.0�?,��.0�?,��]pentacosa-7,9,11,16(21),17,19-hexaen-3-yl]hexa-2,4-dien-1-one [M+H]+
PI=MoNA
DATACOLLECTOR=MoNA:VF-NPL-QEHF021757
PUBMED=N/A
SUBMITUSER=mwang87
TAGS=
SPECTRUMID=CCMSLIB00004712820
SCANS=21757
50.821224 0.024722 
51.78791 0.012372 
52.28133 0.015953 
52.346439 0.008561 
52.72472 0.009802 
53.87862 0.012369 
58.115509 0.009187 
59.192509 0.017733 
61.399323 0.01601 
61.723408 0.011978 
61.920818 0.011514 
61.994381 0.011886 
62.045269 0.015683 
62.225075 0.0216 
62.547314 0.008991 
63.173508 0.00956 
64.42923 0.016915 
65.038734 0.792042 
66.172745 0.016018 
67.054337 11.172207 
68.057678 0.493464 
68.568726 0.020029 
68.882072 0.014465 
69.02597 0.00768 
69.486404 0.008837 
70.662338 0.009237 
71.455528 0.019502 
71.690163 0.01224 
75.049416 0.014941 
76.436523 0.017863 
77.431137 0.012008 
77.473854 0.007501 
79.849136 0.012581 
79.854546 0.009786 
80.413452 0.012533 
80.60144 0.011923 
80.802345 0.024077 
81.069748 0.021112 
82.345764 0.021836 
84.522102 0.015158 
90.415886 0.012078 
91.084236 0.022969 
92.278854 0.012876 
93.100929 0.023973 
93.476601 0.021874 
94.302628 0.01888 
95.049141 46.985626 
95.085716 0.021344 
95.106506 0.011741 
96.016396 0.012158 
96.052505 2.387325 
96.164658 0.01749 
98.028503 0.010459 
98.719162 0.01756 
98.897148 0.019627 
100.776421 0.0162 
100.986458 0.019371 
101.171402 0.02015 
102.938194 0.007176 
105.126717 0.011735 
106.066132 0.009993 
109.065506 0.007339 
109.622383 0.020528 
110.661224 0.014849 
110.768723 0.018101 
110.836517 0.007576 
112.630898 0.015844 
114.090225 0.020141 
115.456123 0.017836 
119.446648 0.012206 
119.748924 0.012114 
122.128487 0.017998 
122.472092 0.018317 
122.997711 0.014599 
123.076523 0.014653 
128.135971 0.02039 
128.34552 0.016922 
129.1922 0.015015 
130.065125 0.357177 
133.046555 0.01584 
133.267685 0.007449 
133.630402 0.014288 
133.982483 0.015967 
134.040619 0.019975 
134.534027 0.013111 
138.091339 0.356888 
139.452957 0.015934 
139.817902 0.006609 
140.01236 0.0077 
140.474426 0.013286 
141.059052 0.007846 
144.080811 0.865789 
145.824463 0.02042 
148.860748 0.015756 
149.520782 0.019043 
154.915482 0.020001 
156.080933 0.081399 
156.182892 0.023816 
158.096359 0.155545 
158.457794 0.008729 
159.091568 20.375423 
159.899216 0.018213 
160.094925 1.88955 
161.00676 0.021547 
162.223541 0.025264 
163.402527 0.021692 
165.404785 0.013516 
168.080673 1.728309 
168.484909 0.019499 
169.076218 0.039713 
170.096375 0.780107 
171.091599 0.507662 
171.100052 0.015981 
171.462158 0.024195 
172.755707 0.007494 
173.872986 0.009946 
176.906754 0.020478 
178.477631 0.02397 
181.080353 0.017334 
181.088577 1.027894 
182.096634 0.603406 
183.083084 0.048576 
183.091751 7.205853 
184.075806 0.034083 
184.099213 1.049272 
184.111938 0.108475 
185.107376 16.71104 
185.72995 0.022197 
186.090714 0.011323 
186.11087 1.853248 
194.547394 0.022238 
195.091751 0.249509 
195.104172 0.024196 
196.099808 0.665179 
196.112122 0.871919 
197.107391 9.574071 
197.117691 0.277403 
198.091843 0.220854 
198.115509 6.427115 
198.12674 0.46657 
199.123413 1.728516 
200.126694 0.083443 
201.052856 0.012936 
205.544388 0.023205 
205.701294 0.021509 
208.112213 0.053694 
209.107941 0.011426 
210.117355 0.049799 
210.127747 1.559462 
211.132889 0.010104 
211.777039 0.016188 
212.048828 0.017546 
212.143448 0.03464 
213.140961 0.489022 
213.151749 1.088517 
213.163391 0.367213 
217.689575 0.022797 
220.111847 0.320211 
221.120544 0.019472 
222.128265 0.044784 
223.122269 0.02706 
224.107162 0.198195 
226.122528 1.266354 
228.137909 0.080817 
232.447113 0.022571 
236.399811 0.009595 
237.138351 2.186274 
238.122849 1.084357 
238.14566 0.97052 
238.516205 0.021648 
238.831314 0.016101 
239.129257 0.162006 
239.153519 0.172333 
240.138107 1.307663 
240.425949 0.013327 
241.14212 0.043591 
243.381042 0.009493 
246.818985 0.014213 
253.133316 2.77134 
254.137222 0.306314 
255.149139 7.928466 
256.15274 1.214104 
257.164551 0.244967 
267.42395 0.019474 
268.853424 0.011948 
276.22113 0.021221 
280.253021 0.022239 
281.912811 0.013276 
283.12265 0.040422 
283.274353 0.021721 
284.130646 0.014748 
285.138245 0.265181 
288.233246 0.017797 
295.122742 0.088416 
296.130219 0.236229 
297.138336 0.821291 
298.145935 0.025377 
298.50882 0.014988 
298.591339 0.017684 
299.154144 0.457141 
307.12262 0.020386 
308.130768 0.160464 
309.138397 1.740186 
309.367676 0.009135 
310.144775 0.668956 
311.154236 0.58563 
312.15036 0.039161 
313.156219 0.022316 
313.170227 0.017728 
314.164459 0.088916 
316.983673 0.023411 
317.150909 0.021082 
322.146484 0.02375 
322.914978 0.056432 
323.154327 2.728635 
324.158417 0.591301 
325.170349 0.026178 
326.164948 4.023992 
327.149109 0.081054 
327.169067 0.961716 
328.179565 0.112055 
337.170349 0.027291 
338.165039 0.039956 
339.151062 0.035102 
339.171173 0.347743 
339.187531 0.242471 
340.180817 7.083328 
340.203369 0.037284 
341.16452 0.901742 
341.184814 1.387053 
342.162689 0.107558 
342.184875 0.3022 
343.191833 12.832441 
343.330658 0.020024 
344.195068 2.863959 
345.197021 0.011085 
349.169189 0.179186 
351.184448 0.057504 
352.609894 0.023386 
353.201233 0.245445 
354.171844 0.202812 
356.198792 1.231782 
357.207245 3.927608 
358.210785 0.839194 
360.839264 0.190268 
363.185608 0.697894 
363.289093 0.0111 
366.171844 0.169019 
367.180542 2.078741 
368.183838 0.532681 
368.209412 0.06769 
369.194916 0.076888 
370.153656 0.058287 
380.21167 0.47358 
381.195618 4.550564 
382.197266 1.548759 
383.196198 0.027367 
396.204742 0.066597 
397.213654 0.454238 
397.239044 0.33562 
398.221283 0.555892 
404.111603 0.015253 
410.185852 0.090541 
410.222961 0.062706 
413.448059 0.023903 
417.858704 0.009296 
419.851715 0.071504 
420.207092 0.765884 
421.210968 0.082718 
434.221954 2.784529 
435.224823 0.76379 
437.233124 100.0 
438.236328 28.946539 
439.239655 2.337821 
450.254242 0.125394 
451.248718 4.370207 
452.25296 0.945108 
462.254181 0.097982 
474.254639 0.085592 
479.961273 0.022323 
488.565979 0.016057 
491.280182 2.296474 
492.261261 1.225489 
492.415985 0.008439 
493.267609 0.261085 
498.663544 0.013194 
499.61377 0.019446 
509.290283 1.895027 
510.294067 0.665452 
514.114258 0.02744 
539.73822 0.021796 
END IONS

