BEGIN IONS
PEPMASS=528.187
CHARGE=1+
COMPOUNDNAME=Massbank: Daunorubicin
LIBRARYQUALITY=3
SMILES=c(=O)(c12)c(c5O[H])c(c(O[H])c(c35)C(C(C(C3(OC([H])(C([H])([H])4)OC([H])(C([H])(O[H])C([H])(N([H])[H])4)C([H])([H])[H])[H])([H])[H])(O[H])C(=O)C([H])([H])[H])([H])[H])c(c1c(c(c(c2OC([H])([H])[H])[H])[H])[H])=O
INCHIKEY=STQGQHZAVUOBTE-UHFFFAOYSA-N
INCHI=1S/C27H29NO10/c1-10-22(30)14(28)7-17(37-10)38-16-9-27(35,11(2)29)8-13-19(16)26(34)21-20(24(13)32)23(31)12-5-4-6-15(36-3)18(12)25(21)33/h4-6,10,14,16-17,22,30,32,34-35H,7-9,28H2,1-3H3
MSLEVEL=2
SOURCE_INSTRUMENT=ESI-LC-ESI-QTOF
FILENAME=Massbank_ESI_positive_8_1_2014_peaks.mgf
SEQ=*..*
IONMODE=Positive
ORGANISM=MASSBANK
NAME=Massbank: Daunorubicin [M+H]+
PI=Putative Massbank Match
DATACOLLECTOR=Massbank
PUBMED=N/A
SUBMITUSER=mwang87
TAGS=
SPECTRUMID=CCMSLIB00000206089
SCANS=1349
69.0339 145.031 
71.0495 117.667 
72.0453 371.291 
86.0614 1073.932 
95.0507 101.248 
113.0608 456.745 
121.0657 198.752 
130.0876 416.035 
135.0451 230.437 
293.0797 339.942 
303.0634 196.783 
306.0506 4174.748 
321.0739 10000.0 
348.0618 144.935 
363.0861 194.623 
END IONS

