BEGIN IONS
TITLE=Scan Number: 2462
PEPMASS=536.89001
CHARGE=0+
COMPOUNDNAME=beta-carotene
LIBRARYQUALITY=3
SMILES=CC(\C=C\C=C(C)\C=C\C1=C(C)CCCC1(C)C)=C/C=C/C=C(C)/C=C/C=C(C)/C=C/C1=C(C)CCCC1(C)C
INCHIKEY=OENHQHLEOONYIE-JLTXGRSLSA-N
INCHI=InChI=1S/C40H56/c1-31(19-13-21-33(3)25-27-37-35(5)23-15-29-39(37,7)8)17-11-12-18-32(2)20-14-22-34(4)26-28-38-36(6)24-16-30-40(38,9)10/h11-14,17-22,25-28H,15-16,23-24,29-30H2,1-10H3/b12-11+,19-13+,20-14+,27-25+,28-26+,31-17+,32-18+,33-21+,34-22+
MSLEVEL=2
SOURCE_INSTRUMENT=LC-ESI-Ion Trap
FILENAME=f.chenliangyu/S104/0914/carotene1_1_01_469.mzXML;
SEQ=*..*
NOTES=
IONMODE=Positive
ORGANISM=GNPS-LIBRARY
NAME=beta-carotene M+H
SPECTRUMID=CCMSLIB00000574965
ACTIVATION=CID
INSTRUMENT=ion trap
SCANS=2462
152.25 3180.383789 
153.0 6058.492676 
154.238968 10142.632812 
155.375 11399.350586 
156.25708 18149.503906 
157.125 10188.292969 
158.32428 14093.776367 
159.260391 84760.382812 
160.501678 26036.847656 
161.232361 54212.738281 
162.156174 6566.525391 
163.256241 14606.708984 
165.125 5744.577637 
166.25 3477.576172 
167.375702 30459.734375 
168.293274 7176.633789 
169.174255 61816.964844 
170.14389 21385.287109 
171.217957 43403.859375 
172.131348 27211.722656 
173.226715 34812.25 
174.130508 13282.995117 
175.299408 73988.414062 
176.237076 29526.986328 
177.309479 158331.609375 
178.253662 8392.3125 
179.107117 41609.355469 
180.105774 18208.132812 
181.223541 27858.210938 
182.210327 27506.234375 
183.288162 89980.9375 
184.320953 17910.693359 
185.077072 77591.867188 
186.362808 11073.618164 
187.216827 32587.382812 
188.254181 35407.964844 
189.190125 77896.671875 
190.291077 15441.861328 
191.255219 37611.359375 
193.070084 36959.363281 
193.505386 10872.541992 
194.21524 34205.296875 
195.292999 57926.078125 
196.251663 11475.462891 
197.168823 73920.039062 
198.130951 24010.158203 
199.337128 88886.382812 
200.255157 11813.651367 
201.178162 103769.0 
202.101318 29742.814453 
203.268982 103112.5 
204.504807 15248.762695 
206.233612 22519.710938 
207.009247 19672.277344 
207.622223 24494.535156 
208.246674 18175.933594 
209.188171 213692.6875 
210.095612 45483.917969 
211.19136 116339.882812 
211.692047 7291.970215 
212.12674 3518.612793 
213.187805 35623.375 
214.149124 9563.853516 
215.223175 59101.847656 
216.191269 16294.625977 
217.380478 22109.273438 
218.166748 11578.479492 
219.285339 26451.976562 
220.347778 14578.84082 
221.182434 69693.539062 
222.15834 58409.542969 
223.208527 109876.445312 
223.504425 12597.341797 
224.375 3786.665039 
225.202148 53614.019531 
226.5 11659.727539 
227.187103 38376.554688 
228.186966 21939.630859 
228.5 3510.324707 
229.12944 33081.675781 
230.185501 15115.049805 
231.161087 10183.44043 
232.075653 13578.055664 
233.127975 31078.517578 
234.285614 42683.652344 
235.165466 101726.289062 
236.375 1490.774658 
237.171463 145597.15625 
238.33963 4695.857422 
239.1987 88997.757812 
239.632797 28144.339844 
240.255722 16583.435547 
241.193695 192693.8125 
242.108566 52701.511719 
242.507523 15364.269531 
243.272385 76317.421875 
244.160294 22760.625 
245.183563 45683.359375 
246.253387 16364.887695 
247.273239 34820.777344 
248.230591 38057.832031 
249.236145 80695.195312 
250.306564 26270.164062 
251.175827 43508.242188 
252.203491 10426.709961 
253.164307 127949.585938 
253.506378 22986.695312 
254.237259 172460.5 
255.197662 384293.5 
256.178833 46148.375 
256.988068 19373.886719 
257.25 7514.660156 
258.129272 23175.273438 
259.127075 40788.890625 
260.32666 29457.291016 
261.153656 90417.421875 
262.196411 22391.162109 
263.211639 62101.460938 
264.346191 24611.744141 
265.146851 63850.988281 
266.331177 9378.523438 
267.256104 252787.484375 
268.291626 51935.804688 
269.191223 95874.1875 
270.286255 34559.0625 
271.188782 30320.144531 
272.125 7453.97998 
273.208282 24970.859375 
273.751648 6849.885742 
275.181396 229047.578125 
276.111847 81166.625 
277.195435 67853.835938 
278.25 8573.277344 
279.207489 171295.046875 
279.503296 23235.029297 
280.214661 37798.394531 
280.5 9622.900391 
281.320251 456021.875 
282.333069 120199.804688 
283.301392 15619.416992 
285.25 5565.610352 
287.190521 21128.011719 
288.125 9541.085938 
289.215027 67193.390625 
290.113037 14316.275391 
291.279755 30119.207031 
292.205444 30578.191406 
293.246948 158214.140625 
294.22934 76240.335938 
295.179688 67823.140625 
295.633667 8982.057617 
297.130859 33151.398438 
299.440247 43729.582031 
301.053955 17333.744141 
301.496887 4182.713379 
302.137939 27284.650391 
303.199402 30879.197266 
304.228668 51394.863281 
305.251984 125867.765625 
306.294373 29983.4375 
307.196899 188925.953125 
307.507935 27397.365234 
308.267242 107761.101562 
308.814026 37226.757812 
309.2771 47366.769531 
310.001221 7827.416992 
310.875 4039.068115 
312.255554 33639.039062 
313.055939 21112.115234 
315.221924 43617.601562 
316.082886 119648.695312 
317.295837 79512.234375 
318.378235 14828.086914 
319.238098 87842.992188 
320.281433 109782.515625 
321.182831 112939.8125 
322.221191 23328.716797 
323.269104 227189.1875 
324.31778 39757.851562 
325.507629 47347.488281 
326.311859 69644.796875 
327.236755 30029.46875 
328.25 8070.192383 
329.235291 113973.117188 
330.243866 13262.703125 
331.223633 155045.96875 
331.581543 3775.279541 
332.20166 37855.792969 
333.23114 95617.335938 
334.322876 57647.8125 
335.481384 37545.902344 
336.228851 62002.425781 
337.192871 76480.851562 
338.267822 214113.453125 
339.184692 54236.460938 
340.284363 7841.987793 
341.183472 56753.425781 
342.25 6417.605469 
343.227051 105745.484375 
344.335022 50916.566406 
345.249573 218105.546875 
346.161621 202348.390625 
346.528503 40782.6875 
347.242554 150093.671875 
348.332581 89245.570312 
349.233337 19515.712891 
350.375 10634.326172 
351.322083 68927.523438 
351.561462 20738.1875 
352.230652 112911.523438 
352.629791 5434.09668 
353.177368 38126.578125 
354.125 4559.401855 
355.083191 34211.871094 
356.127502 18666.035156 
357.237427 113250.507812 
358.290833 27796.160156 
359.309998 214773.234375 
360.340668 51476.613281 
360.511841 14218.140625 
361.230194 84647.546875 
362.294647 15250.663086 
363.336517 32046.048828 
364.321808 43065.496094 
364.63623 20042.203125 
365.313751 42359.824219 
366.261719 11052.37793 
367.128754 22902.660156 
369.290527 64979.089844 
370.154053 18096.056641 
371.277771 47082.160156 
372.131195 15994.93457 
373.413696 32761.158203 
374.380585 10920.067383 
375.25531 43581.816406 
377.629517 13200.135742 
378.355469 177962.9375 
379.314117 99865.875 
380.381042 25408.828125 
381.504883 14616.637695 
382.054077 27389.998047 
383.171814 89430.992188 
384.260681 51024.707031 
385.24881 113550.890625 
385.553009 3347.354248 
385.766113 13991.65625 
386.295715 14249.65918 
387.485107 24694.289062 
388.375 4021.648682 
389.171814 19145.826172 
390.338013 26214.054688 
391.14386 8051.163574 
393.224945 36825.828125 
395.005493 17834.988281 
397.36853 75827.5625 
398.214294 57521.625 
399.321381 425805.65625 
400.278625 145434.203125 
401.271912 60667.746094 
402.305237 24441.369141 
411.378754 35575.046875 
412.143585 18296.300781 
412.471191 10861.383789 
413.252289 110974.953125 
414.380798 20854.087891 
415.377777 53159.328125 
416.385986 33516.140625 
417.516083 31820.705078 
418.371399 8979.520508 
422.75 4472.347656 
425.320862 94156.382812 
426.380035 10938.147461 
428.380341 26137.654297 
429.333374 346669.15625 
430.369537 159309.484375 
431.377289 66788.78125 
434.375 8149.65625 
437.2146 25386.119141 
439.176208 56366.300781 
440.044495 21424.541016 
440.756104 20229.943359 
441.31311 63419.085938 
442.394165 4973.692383 
443.396271 82420.710938 
444.388519 7598374.0 
445.342072 2293770.75 
445.60318 218685.15625 
446.326508 303214.625 
447.308319 28926.710938 
450.25 8231.395508 
451.461517 38621.390625 
452.311676 26692.943359 
453.258057 16269.208984 
454.130493 10042.524414 
455.516571 19598.851562 
456.366638 211810.9375 
456.761627 50636.359375 
457.440216 214738.59375 
458.368683 52591.449219 
464.630463 49161.457031 
465.35733 84672.453125 
466.336731 45588.933594 
467.482056 60982.144531 
468.403259 57070.765625 
473.380035 19339.730469 
477.333893 24444.253906 
479.220459 30999.6875 
480.365723 58235.027344 
493.498993 12432.882812 
494.375 7431.25 
495.381134 15865.211914 
503.5 3942.106445 
504.255859 11261.931641 
505.125 6791.70752 
506.256287 19241.722656 
507.403564 21855.216797 
508.353851 11130.322266 
509.25 4040.171143 
512.255066 38754.386719 
518.25592 14228.068359 
519.365479 8054.742676 
520.384094 19160.992188 
521.480469 211563.09375 
522.413818 194357.0625 
523.504822 15978.109375 
587.646545 2446.69873 
END IONS

