BEGIN IONS
PEPMASS=150.0
CHARGE=1+
COMPOUNDNAME=MoNA:2480920 GNF-Pf-2016
LIBRARYQUALITY=3
SMILES=N/A
INCHIKEY=RXWNCPJZOCPEPQ-NVWDDTSBSA-N
INCHI=InChI=1S/C22H29N7O5/c1-28(2)19-17-20(25-10-24-19)29(11-26-17)22-18(31)16(15(9-30)34-22)27-21(32)14(23)8-12-4-6-13(33-3)7-5-12/h4-7,10-11,14-16,18,22,30-31H,8-9,23H2,1-3H3,(H,27,32)/t14-,15+,16+,18+,22+/m0/s1
MSLEVEL=2
SOURCE_INSTRUMENT=LC-ESI-IT-LC-ESI-IT
FILENAME=output_mgf.mgf
SEQ=*..*
IONMODE=
ORGANISM=MONA
NAME=MoNA:2480920 GNF-Pf-2016 [M+H]+
PI=MoNA
DATACOLLECTOR=MoNA
PUBMED=N/A
SUBMITUSER=mwang87
TAGS=
SPECTRUMID=CCMSLIB00000567484
SCANS=4735
91.1 9.594774 
105.2 1.18914 
118.1 85.138308 
121.1 100.0 
123.1 5.629274 
135.0 0.933959 
151.1 0.979892 
174.1 1.270797 
228.9 5.613963 
END IONS

