BEGIN IONS
PEPMASS=355.079
CHARGE=1+
COMPOUNDNAME=bisdethiobis(methylthio)gliotoxin
LIBRARYQUALITY=3
SMILES=N/A
INCHIKEY=OVBAGMZLGLXSBN-UOVKNHIHSA-N
INCHI=InChI=1S/C15H20N2O4S2/c1-16-12(20)14(22-2)7-9-5-4-6-10(19)11(9)17(14)13(21)15(16,8-18)23-3/h4-6,10-11,18-19H,7-8H2,1-3H3/t10-,11-,14+,15+/m0/s1
MSLEVEL=2
SOURCE_INSTRUMENT=N/A-ESI-QFT
FILENAME=library_mgf.mgf
SEQ=*..*
IONMODE=negative
ORGANISM=MONA
NAME=bisdethiobis(methylthio)gliotoxin [M-H]-
PI=MoNA
DATACOLLECTOR=MoNA:VF-NPL-QEHF024548
PUBMED=N/A
SUBMITUSER=mwang87
TAGS=
SPECTRUMID=CCMSLIB00004715611
SCANS=24548
50.21909 0.140262 
50.435112 0.144972 
50.599159 0.077493 
50.865837 0.124635 
50.971794 0.104611 
51.215546 0.083092 
52.109814 0.115338 
52.647964 0.143536 
53.014118 0.147007 
53.989033 0.113572 
54.179607 0.120603 
54.223259 0.082325 
54.781273 0.136788 
56.423328 0.116235 
56.498653 0.123541 
56.54319 0.116159 
56.70591 0.086556 
57.033264 0.174273 
57.296616 0.099598 
57.681484 0.161313 
57.974277 2.689261 
58.636478 0.110821 
59.005798 0.121704 
59.01244 14.854479 
59.103642 0.095509 
59.268517 0.137462 
60.299511 0.125696 
60.973961 0.807977 
61.160564 0.09506 
61.986961 11.916529 
62.734325 0.098371 
62.974293 0.119236 
63.118496 0.102998 
63.698826 0.118713 
63.96104 2.268258 
65.140854 0.079678 
65.725899 0.165001 
65.997116 0.097574 
66.05706 0.078386 
67.428162 0.111007 
68.040428 0.134416 
68.537521 0.088737 
68.846451 0.091906 
68.996788 0.139144 
70.028549 0.160913 
70.315811 0.088325 
71.012421 2.785497 
71.44281 0.089854 
72.154236 0.082715 
72.446663 0.122786 
72.776878 0.125071 
72.902542 0.142629 
72.991646 0.39495 
73.389694 0.127643 
74.005646 0.942567 
74.02343 0.474999 
74.564697 0.091406 
74.854233 0.095453 
74.941856 0.108676 
74.989403 0.141968 
75.007393 1.997993 
75.205505 0.117506 
75.547066 0.088679 
75.791473 0.120093 
75.893646 0.125198 
76.064102 0.143428 
76.304993 0.145569 
77.678825 0.172976 
78.266304 0.112257 
78.485565 0.100377 
78.755501 0.107314 
78.844383 0.114982 
78.957649 2.136905 
78.96666 0.540416 
78.984505 7.230424 
79.216026 0.131119 
79.368721 0.127426 
79.95594 7.064583 
80.034264 0.092259 
80.07457 0.119342 
80.963814 10.528562 
81.831772 0.094326 
82.028419 0.630073 
82.258224 0.151654 
82.343559 0.141903 
83.012161 0.155386 
83.04882 0.343229 
83.088867 0.096106 
84.292274 0.106483 
84.937317 0.951088 
85.028061 1.02116 
85.063309 0.113271 
85.698227 0.128485 
86.29641 0.078383 
87.007385 1.427148 
87.097771 0.143217 
87.593285 0.098342 
89.022987 7.245776 
89.041237 0.358478 
89.145874 0.102117 
89.626045 0.096037 
89.775444 0.139723 
90.005432 0.126968 
90.932114 0.304108 
92.049347 0.109722 
93.033173 1.545312 
93.5989 0.126311 
94.028465 0.190109 
94.546387 0.152929 
94.979408 6.790775 
95.012497 0.584133 
96.958771 44.383816 
97.027916 0.181082 
97.039375 10.298397 
97.511536 0.152293 
98.023285 0.361997 
98.111855 0.086987 
98.95443 1.693631 
99.007553 0.198626 
99.04406 0.216324 
99.10891 0.103128 
99.261848 0.139993 
99.924438 15.329698 
100.705078 0.127354 
100.745522 0.154803 
100.924515 0.333348 
100.932327 5.827238 
101.023071 0.177309 
101.043938 0.113543 
101.296707 0.124715 
101.819489 0.082562 
102.000511 1.287519 
102.178299 0.130798 
103.002197 0.119634 
104.341927 0.132484 
105.000259 0.12595 
106.135239 0.116015 
107.0364 0.341301 
108.020599 0.398194 
108.044144 1.294862 
108.057198 0.200646 
109.028084 3.311677 
109.729233 0.130293 
110.023499 0.145398 
111.007431 2.810642 
111.043854 0.169844 
111.215187 0.136311 
111.788033 0.100834 
112.039116 6.083473 
112.144302 0.136762 
112.716324 0.095059 
113.339569 0.079729 
113.382683 0.155159 
113.624321 0.124441 
114.05484 0.151003 
114.075851 0.10333 
114.342636 0.084221 
114.90564 0.156749 
114.932564 0.166438 
115.413651 0.117321 
115.919342 9.127669 
116.049271 11.309528 
116.662842 0.122979 
116.91964 0.611221 
116.927254 23.709948 
117.927345 1.657101 
118.028519 2.399597 
118.897911 0.154349 
119.865715 0.133196 
120.022995 0.105279 
120.04425 0.494836 
120.632217 0.193275 
120.86808 0.157961 
121.028183 4.563256 
121.640839 0.098861 
122.023468 0.981008 
122.059746 0.139263 
122.974411 1.289444 
123.007439 3.88406 
123.031403 0.406565 
124.015427 2.222604 
124.039093 5.460589 
125.022751 0.306009 
125.034286 0.71711 
126.017944 0.188081 
126.903633 0.178261 
128.016251 3.800452 
129.646027 0.097723 
131.036804 0.179911 
132.044296 5.957619 
133.028275 0.456997 
134.023575 2.792669 
134.059906 0.302584 
134.880264 0.155726 
135.044128 0.189908 
135.187576 0.136711 
136.038879 0.197481 
136.49321 0.110006 
137.022964 0.187886 
138.018661 0.128428 
138.054779 0.480032 
139.049957 1.19193 
140.515778 0.115582 
141.011215 0.123214 
141.028641 0.127116 
141.995529 0.454278 
142.571487 0.097482 
143.407852 0.12952 
144.044296 3.643063 
144.092468 0.097287 
146.023544 0.590527 
146.059753 0.398456 
146.0811 10.900312 
147.031311 5.852845 
147.055267 0.141533 
148.021576 0.25064 
148.039352 2.501884 
148.075882 0.137717 
148.913147 0.156581 
149.731613 0.150276 
150.018448 3.74566 
150.054779 0.183165 
150.399918 0.114897 
152.591248 0.145503 
152.994659 0.716994 
155.003479 0.161379 
155.083008 0.131747 
155.998764 0.736945 
157.006714 0.109547 
158.060272 0.148196 
159.241104 0.15761 
160.039261 19.36459 
161.070282 0.161721 
162.018829 0.278886 
162.042358 0.263068 
162.054947 2.263177 
162.077637 1.371667 
163.02684 0.17395 
163.050247 0.201814 
164.016174 0.16743 
164.070374 0.153958 
164.802963 0.124958 
165.02919 0.199615 
165.06604 0.72787 
165.934235 0.111447 
166.049683 0.191669 
166.135147 0.145 
166.989746 0.177789 
169.006699 2.721761 
169.653793 0.099644 
169.769073 0.141133 
170.003143 0.921974 
170.01445 4.054644 
171.567474 0.138917 
173.071014 6.274481 
174.000992 0.503712 
174.01828 0.11442 
174.055115 1.082904 
175.026703 0.627626 
175.050385 1.125278 
175.461594 0.085511 
175.487442 0.156989 
175.603836 0.147386 
176.016586 1.503832 
176.034332 2.638261 
177.066605 0.359709 
177.996399 0.115551 
179.841644 0.127676 
183.0112 35.980461 
184.017044 0.716446 
184.039688 0.130541 
185.035431 0.140136 
185.809357 0.111298 
187.050018 0.450617 
188.034393 1.294248 
188.058044 0.255249 
189.066086 6.354458 
190.037811 0.208817 
191.020798 0.289243 
191.045578 2.414588 
191.056335 1.462196 
191.081619 1.747943 
191.354507 0.13579 
192.01178 3.445704 
192.029526 0.530518 
192.065979 0.542927 
192.159195 0.128914 
193.006851 1.343306 
193.050354 0.180996 
193.060959 2.139142 
194.015182 0.235481 
194.044373 0.122098 
194.080307 0.139196 
195.02269 0.152239 
197.026978 3.28236 
197.071274 0.381208 
198.034592 0.669395 
199.050339 2.816621 
199.850372 0.209161 
200.688126 0.102514 
201.066284 13.974433 
202.076752 0.094856 
203.045685 1.603695 
203.934021 0.136301 
204.011948 0.179813 
204.05307 0.706928 
205.028122 0.089614 
205.043503 0.640958 
205.060867 1.391247 
207.022339 0.515607 
208.030609 9.903254 
209.001938 0.101279 
210.022308 0.209558 
211.043289 0.159308 
212.058807 1.86693 
213.029999 0.11441 
213.066528 0.555083 
214.037704 3.383094 
214.496445 5.247346 
214.50679 2.460734 
215.045654 1.487265 
216.035583 0.234712 
216.052948 1.090519 
217.043518 0.863318 
217.061295 7.463034 
217.118958 0.33812 
218.027863 0.197304 
218.069061 1.341987 
219.023056 0.117871 
219.077011 22.855225 
220.006683 1.189175 
220.031082 0.762459 
221.117371 0.127192 
221.69606 0.102782 
223.073776 0.145568 
225.008301 0.130384 
225.057831 0.349641 
227.045731 3.100159 
228.053574 1.696572 
228.965378 0.159265 
229.04393 0.096292 
229.061234 6.419005 
230.068832 0.35636 
230.83075 0.129664 
231.023239 1.91712 
231.040527 0.455769 
231.077042 18.515709 
231.664627 0.114261 
231.807281 0.195298 
232.030594 9.373884 
232.049255 0.166828 
233.038742 23.072289 
233.056183 0.488937 
234.046494 0.567 
235.017639 1.03057 
236.025833 19.354479 
238.017365 1.092081 
239.074631 0.357407 
241.061493 1.837238 
242.033035 0.625638 
243.023117 6.120719 
243.040649 1.154087 
244.030762 10.261682 
244.748062 0.142451 
245.002045 0.793504 
245.020386 0.214207 
245.056519 7.193241 
245.257111 0.14069 
246.009338 0.288843 
246.064392 6.900835 
247.000214 0.079245 
247.017868 3.031472 
247.072479 1.844013 
247.265518 0.093365 
247.910858 0.104849 
248.025574 6.624183 
249.015076 0.28411 
249.033524 3.530556 
249.055023 2.402259 
250.040848 0.249695 
251.049576 0.131441 
251.739609 0.148698 
255.232742 11.699092 
256.236084 2.457474 
257.056976 0.292211 
258.946045 0.098799 
259.018158 2.681612 
260.02597 29.529646 
260.041382 0.342967 
261.033813 91.783012 
261.049683 1.89269 
262.021729 0.12139 
262.041626 18.764997 
262.996124 0.30353 
263.012451 0.695039 
263.047211 0.247877 
263.790741 0.141107 
264.02005 0.253552 
265.011017 2.696437 
265.02829 0.373153 
265.997467 0.134046 
266.963684 0.111356 
267.066132 2.318166 
270.07605 0.163233 
270.688599 0.143685 
272.058929 0.11732 
274.994995 0.124343 
275.012878 4.366628 
275.028656 0.137619 
275.106567 0.659346 
276.020538 5.249011 
276.057251 2.84896 
276.297333 0.144887 
277.028564 1.358403 
277.065735 0.290727 
278.036499 21.952141 
279.028137 0.187939 
279.044342 21.153845 
281.00592 3.843046 
282.994812 1.184971 
284.527039 0.193016 
284.974579 0.65188 
286.418365 0.149462 
288.221619 0.122882 
290.990082 1.206862 
291.007782 0.322136 
291.999207 0.125054 
292.015564 10.97742 
292.987518 1.332674 
293.005676 5.097441 
293.022797 0.712298 
293.045258 0.928923 
294.013 0.12181 
294.031464 11.884382 
294.06778 0.280421 
295.137024 0.133249 
297.152985 4.920198 
298.119324 0.104475 
300.075928 0.141012 
306.052155 0.119058 
307.002106 0.15059 
307.038177 0.121543 
308.010651 1.261642 
308.029358 0.147634 
309.000793 8.977082 
309.054199 0.40714 
309.153595 0.146541 
310.007843 0.096523 
311.948029 0.180609 
316.266571 0.109074 
316.28714 0.096783 
322.97998 1.32996 
323.098572 0.171321 
323.984131 0.149084 
324.024292 2.204199 
325.012451 0.141066 
335.576721 0.146516 
337.655518 0.121974 
340.020416 0.127468 
342.033997 0.959448 
344.740234 0.116556 
345.951874 0.105423 
349.949493 0.170487 
353.178986 15.801356 
353.199463 10.561002 
353.216705 11.418692 
353.341492 0.305851 
354.182495 6.7025 
354.202118 1.428987 
354.22049 2.313467 
355.194855 100.0 
356.198029 19.810497 
356.221985 0.108759 
357.013245 0.603966 
357.079254 1.223288 
357.13089 0.169534 
357.171448 0.242567 
357.192352 0.394122 
358.992798 1.807939 
359.093781 0.168879 
371.612427 0.191304 
373.339325 0.182198 
377.153046 0.139883 
END IONS

