BEGIN IONS
PEPMASS=427.246
CHARGE=1+
COMPOUNDNAME=LOVASTATIN
LIBRARYQUALITY=3
SMILES=N/A
INCHIKEY=PCZOHLXUXFIOCF-BXMDZJJMSA-N
INCHI=InChI=1S/C24H36O5/c1-5-15(3)24(27)29-21-11-14(2)10-17-7-6-16(4)20(23(17)21)9-8-19-12-18(25)13-22(26)28-19/h6-7,10,14-16,18-21,23,25H,5,8-9,11-13H2,1-4H3/t14-,15-,16-,18+,19+,20-,21-,23-/m0/s1
MSLEVEL=2
SOURCE_INSTRUMENT=N/A-ESI-QFT
FILENAME=library_mgf.mgf
SEQ=*..*
IONMODE=positive
ORGANISM=MONA
NAME=LOVASTATIN [M+Na]+
PI=MoNA
DATACOLLECTOR=MoNA:VF-NPL-QEHF003458
PUBMED=N/A
SUBMITUSER=mwang87
TAGS=
SPECTRUMID=CCMSLIB00004694521
SCANS=3458
50.240814 0.061912 
50.544098 0.076242 
50.639187 0.063464 
50.886826 0.245819 
51.055241 0.07615 
51.105701 0.117336 
51.669212 0.108834 
52.09177 0.099836 
53.450443 0.116293 
53.77784 0.033983 
53.924606 0.123141 
54.040684 0.224623 
54.231449 0.065748 
54.274998 0.22697 
54.455086 0.111101 
54.884659 0.071375 
55.440994 0.104773 
57.174393 0.032822 
57.193161 0.0319 
57.437691 0.111599 
57.471725 0.239277 
57.554337 0.245939 
57.563107 0.056497 
57.65274 0.095024 
57.978146 0.107434 
58.753143 0.183051 
58.91011 0.182227 
59.344341 0.071547 
59.448654 0.23598 
59.760666 0.283765 
60.920097 0.174406 
60.998707 0.063757 
61.152287 0.036769 
61.848793 0.136263 
62.000965 0.054323 
62.568466 0.106226 
62.648102 0.168482 
63.624363 0.067087 
63.871391 0.051667 
64.183105 0.097431 
64.379211 0.292809 
64.928101 0.120817 
66.085091 0.156517 
66.652046 0.281886 
67.036766 0.099001 
67.5 0.072563 
67.640755 0.114989 
69.380188 0.183228 
69.567245 0.033958 
69.593796 0.127011 
69.907753 0.032851 
71.352264 0.033467 
71.886292 0.270589 
72.228928 0.135846 
74.234154 0.05065 
74.730591 0.279483 
75.123138 0.197342 
76.548103 0.07098 
76.703728 0.035882 
77.026375 0.071412 
77.327774 0.126205 
77.883301 0.18758 
78.476288 0.17354 
80.302246 0.248807 
80.594429 0.117888 
80.984093 0.055013 
81.070503 0.045292 
81.483421 0.244972 
81.490677 0.150964 
82.515152 0.245245 
82.828751 0.11821 
83.000557 0.101606 
83.275253 0.233527 
83.397118 0.176544 
84.078003 0.122054 
84.41095 0.160497 
84.92453 0.108472 
86.191193 0.03362 
86.453354 0.178181 
87.78624 0.047061 
88.256828 0.184804 
88.30172 0.154488 
88.69989 0.268932 
89.41053 0.037432 
89.768997 0.205548 
89.887428 0.152303 
90.485931 0.054642 
90.628731 0.037243 
90.976585 0.046083 
91.642097 0.271832 
94.9151 0.200904 
96.767426 0.084107 
98.95266 0.27567 
99.314537 0.254971 
100.122543 0.080771 
100.385345 0.099022 
100.654762 0.116806 
100.941734 0.255573 
101.256607 0.075033 
102.260735 0.071187 
102.952866 0.090868 
103.303719 0.110519 
103.70314 0.306706 
104.675293 0.125663 
105.070259 0.211351 
106.17363 0.208438 
107.079124 0.206354 
107.326889 0.296531 
107.615799 0.08602 
109.412682 0.275843 
109.595909 0.340463 
110.065956 0.075183 
110.091438 0.23905 
111.005508 1.626784 
112.395035 0.069873 
113.619232 0.178686 
113.896629 0.263642 
113.958191 0.286866 
114.248085 0.126036 
114.645622 0.075355 
115.452782 0.250403 
116.830925 0.052414 
117.047577 0.237129 
117.677139 0.278754 
117.957573 0.276447 
118.654808 0.168628 
118.757187 0.147673 
120.008469 0.282381 
120.222137 0.163994 
120.502876 0.084986 
121.293594 0.186618 
122.29464 0.271817 
123.133163 0.118487 
125.556282 0.169869 
126.670425 0.077949 
129.341034 0.278049 
129.715454 0.297308 
129.895523 0.266747 
131.085373 0.332406 
134.071548 0.247381 
134.291992 0.037934 
135.622665 0.071968 
135.78215 0.166609 
136.900131 0.285244 
137.014725 0.089257 
137.374222 0.09961 
139.859558 0.09082 
141.04248 0.263561 
142.210022 0.059552 
142.671829 0.279527 
143.492706 0.260828 
144.902679 0.081636 
145.101456 0.079601 
146.296799 0.176257 
146.518509 0.102421 
147.469635 0.302814 
150.730637 0.109109 
151.514404 0.171917 
152.713318 0.187036 
153.996704 0.191208 
156.917252 0.336468 
158.04837 0.122312 
159.116547 3.8693 
159.377029 0.091919 
160.064972 0.27631 
162.392487 0.087715 
164.850861 0.279154 
165.543854 0.200341 
167.315704 0.196636 
169.106827 0.074351 
169.239487 0.093513 
170.917267 0.193803 
172.579865 0.114385 
173.132339 1.617464 
174.163956 0.261519 
174.310074 0.325776 
176.349823 0.238453 
179.130615 0.258686 
179.159256 0.257469 
185.390778 0.13306 
187.530441 0.098215 
195.487518 0.0969 
199.148117 0.100056 
201.163696 0.122008 
201.617386 0.241763 
202.632797 0.311568 
206.707184 0.248643 
210.289078 0.182964 
211.92482 0.102817 
212.212906 0.117908 
212.763672 0.229727 
213.651123 0.300555 
213.777679 13.106696 
215.677567 0.052085 
223.790237 0.134004 
224.105774 0.287255 
225.162643 0.338305 
225.937073 0.142368 
229.254242 0.058892 
230.304321 0.290605 
231.926743 0.084035 
240.4599 0.217208 
242.393661 0.278744 
242.695847 0.266398 
243.028046 0.117246 
246.250504 0.266653 
246.381332 0.128919 
248.514999 0.282745 
250.187347 0.163721 
251.116425 0.081992 
252.155548 0.195023 
255.045609 0.295007 
257.304352 0.050853 
259.387451 0.221336 
259.793121 0.081446 
261.992523 0.134729 
264.71402 0.142902 
264.909149 0.052801 
267.034882 0.034518 
267.058228 0.255144 
268.294861 0.077247 
272.661591 0.291751 
278.235291 0.22344 
281.911774 0.186799 
282.919769 0.079642 
292.802643 0.068528 
295.130005 19.493849 
296.133759 1.034382 
296.756439 0.283739 
298.157745 0.078707 
304.106781 1.13729 
306.920197 0.457475 
309.050385 0.178244 
310.153534 5.627981 
311.462921 0.169571 
316.208801 0.255476 
317.247223 0.1143 
323.161926 0.658268 
324.324921 0.122368 
324.929626 0.049639 
325.177155 100.0 
326.180573 16.96611 
327.183319 0.255379 
331.326141 0.122169 
344.964813 0.111477 
348.048187 0.081955 
356.703888 0.260325 
356.734955 0.339961 
363.961456 0.267761 
370.928223 0.203529 
372.971039 0.065266 
377.44342 0.214181 
385.427094 0.160375 
388.718231 0.294762 
394.199707 0.284978 
395.700195 0.205644 
410.915802 0.074734 
423.656677 0.184514 
426.649963 0.268553 
427.244873 17.247065 
428.247894 1.41258 
434.263885 0.078329 
END IONS

