BEGIN IONS
PEPMASS=331.155
CHARGE=1+
COMPOUNDNAME=ReSpect:PT202330 Gibberellin A4|Gibberellic acid A4|Gibbane-1,10-dicarboxylic acid, 2,4a-dihydroxy-1-methyl-8-methylene-, 1,4a-lactone, (1alpha,2beta,4aalpha,4bbeta,10beta)-
LIBRARYQUALITY=3
SMILES=CC12C(CCC3(C1C(C45C3CCC(C4)C(=C)C5)C(=O)O)OC2=O)O
INCHIKEY=RSQSQJNRHICNNH-UHFFFAOYSA-N
INCHI=1/C19H24O5/c1-9-7-18-8-10(9)3-4-11(18)19-6-5-12(20)17(2,16(23)24-19)14(19)13(18)15(21)22/h10-14,20H,1,3-8H2,2H3,(H,21,22)/t10-,11-,12+,13-,14-,17u,18+,19-/m1/s1/f/h21H
MSLEVEL=2
SOURCE_INSTRUMENT=ESI-LC-Q-TOF/MS
FILENAME=respect_8_1_2014_GNPS_peaks.mgf
SEQ=*..*
IONMODE=Positive
ORGANISM=RESPECT
NAME=ReSpect:PT202330 Gibberellin A4|Gibberellic acid A4|Gibbane-1,10-dicarboxylic acid, 2,4a-dihydroxy-1-methyl-8-methylene-, 1,4a-lactone, (1alpha,2beta,4aalpha,4bbeta,10beta)- [M+H]
PI=Putative ReSpect Match
DATACOLLECTOR=ReSpect
PUBMED=N/A
SUBMITUSER=mwang87
TAGS=
SPECTRUMID=CCMSLIB00000221875
SCANS=6663
73.031502 53.0 
213.130997 166.0 
225.167496 156.0 
243.178696 193.0 
257.121704 177.0 
269.158112 144.0 
287.169312 162.0 
313.148895 70.0 
331.154602 999.0 
331.610504 60.0 
END IONS

