BEGIN IONS
PEPMASS=895.481
CHARGE=1+
COMPOUNDNAME=ABAMECTIN
LIBRARYQUALITY=3
SMILES=N/A
INCHIKEY=RRZXIRBKKLTSOM-XPNPUAGNSA-N
INCHI=InChI=1S/C48H72O14/c1-11-25(2)43-28(5)17-18-47(62-43)23-34-20-33(61-47)16-15-27(4)42(26(3)13-12-14-32-24-55-45-40(49)29(6)19-35(46(51)58-34)48(32,45)52)59-39-22-37(54-10)44(31(8)57-39)60-38-21-36(53-9)41(50)30(7)56-38/h12-15,17-19,25-26,28,30-31,33-45,49-50,52H,11,16,20-24H2,1-10H3/b13-12+,27-15+,32-14+/t25-,26-,28-,30-,31-,33+,34-,35-,36-,37-,38-,39-,40+,41-,42-,43+,44-,45+,47+,48+/m0/s1
MSLEVEL=2
SOURCE_INSTRUMENT=N/A-ESI-QFT
FILENAME=library_mgf.mgf
SEQ=*..*
IONMODE=positive
ORGANISM=MONA
NAME=ABAMECTIN [M+Na]+
PI=MoNA
DATACOLLECTOR=MoNA:VF-NPL-QEHF028044
PUBMED=N/A
SUBMITUSER=mwang87
TAGS=
SPECTRUMID=CCMSLIB00004721625
SCANS=28044
62.49469 0.815539 
62.504112 0.256568 
62.698483 0.763017 
63.596527 1.115598 
64.251823 0.421082 
64.450752 0.475199 
65.038742 0.614454 
65.200409 0.16515 
65.346001 0.72001 
65.521324 0.440299 
65.980728 0.636397 
65.989059 0.347682 
66.257538 1.104647 
66.39357 1.089773 
66.487709 0.47223 
66.655159 1.13459 
66.986908 0.878924 
67.054276 60.131756 
67.154556 0.431529 
67.310165 0.433261 
69.033577 40.765602 
69.069954 2.358333 
69.190788 0.415012 
69.287727 0.466355 
69.661224 0.451165 
71.042252 1.040971 
71.236389 0.409794 
71.470146 0.935518 
72.67485 0.868583 
73.046799 6.841394 
73.064751 9.568019 
73.421593 0.416205 
74.062462 1.334029 
74.944633 0.325583 
75.684784 0.431741 
75.875725 0.267014 
76.264275 1.146856 
77.191338 0.312127 
77.3573 1.15777 
78.105606 0.249489 
78.463425 0.375778 
78.638084 0.488782 
79.054176 23.642811 
79.278107 0.176241 
79.672836 0.517132 
80.447945 0.292935 
81.069824 100.0 
81.740181 0.48568 
82.209755 1.128006 
82.298645 0.47235 
82.864189 0.488781 
82.896812 1.155814 
84.31823 0.33101 
84.39801 0.178021 
85.028442 0.29984 
85.064705 0.444789 
85.378647 0.459829 
86.715492 0.398821 
86.915283 1.048621 
87.040833 0.779219 
87.043945 1.468908 
88.604195 0.884903 
89.793579 0.326306 
90.471443 1.488662 
91.054214 12.682292 
91.057251 13.792605 
91.06015 0.186201 
92.044968 1.660626 
92.078239 0.795908 
92.723236 0.276133 
93.069847 25.212482 
95.049065 55.262299 
95.085464 13.289432 
96.321564 0.508992 
98.480324 0.390627 
98.792976 0.940206 
100.016617 0.295061 
101.426918 1.436618 
101.755272 0.697922 
101.85891 0.245935 
103.81369 1.089878 
105.069832 13.409019 
105.782433 0.507264 
107.085495 2.027471 
107.820221 0.495717 
108.660141 0.955681 
109.064568 2.190472 
109.101059 22.3447 
110.571007 0.516683 
110.97525 7.571634 
111.565414 1.318345 
111.793694 0.311207 
111.996941 1.174282 
112.674271 0.270224 
113.059586 4.788511 
113.256821 0.667881 
113.736938 1.356775 
117.644028 1.150349 
118.137039 0.503636 
118.326279 1.419571 
119.08522 0.604166 
121.101418 0.316616 
121.427437 0.348909 
123.116707 66.757095 
123.850426 1.11553 
125.371162 0.202662 
127.018181 0.232607 
127.212029 1.001165 
127.930061 1.248733 
127.98455 0.369322 
128.985855 8.315315 
130.079041 0.495716 
131.516098 1.08098 
132.354355 1.393626 
132.813629 0.467327 
133.10141 0.452081 
134.411865 0.427263 
134.513153 0.236375 
139.072876 1.744332 
139.340851 1.113014 
141.151993 0.327179 
141.911865 0.573774 
141.917847 0.435944 
142.078506 0.518087 
143.054703 0.431158 
144.538773 0.34292 
145.224243 0.349626 
146.996353 0.383839 
148.68544 0.791659 
151.111435 1.988166 
151.852493 1.151568 
153.052048 0.928347 
159.293808 0.493935 
159.42746 0.240479 
159.521423 1.315497 
160.384903 0.739385 
160.424301 1.229646 
161.214752 0.356178 
166.968216 1.081865 
168.292007 1.432386 
171.45163 0.395601 
172.131088 0.704005 
175.376984 1.706908 
176.038773 0.330099 
179.611298 1.13329 
186.856903 0.466786 
187.882477 0.428722 
188.737534 1.357524 
189.032822 0.474321 
191.308136 0.306574 
191.720688 0.427664 
194.094177 0.442658 
194.418198 1.216287 
194.57428 0.642391 
195.159576 0.337292 
196.238312 0.189545 
197.090302 0.321523 
198.74173 0.791461 
212.299622 0.346241 
213.214127 0.160407 
219.764877 11.251549 
219.788147 2.257199 
219.798492 0.942794 
222.832458 1.199141 
223.064301 1.105986 
226.019501 1.120477 
226.07283 0.793138 
229.601059 1.244366 
230.744965 1.321642 
233.695602 0.366974 
234.701904 0.255906 
235.179459 0.243609 
237.4048 1.158021 
239.363312 0.868153 
241.952133 0.344774 
242.790466 0.98726 
244.198959 0.759221 
246.248123 0.341402 
246.521072 1.168108 
248.615295 0.256016 
249.4599 0.197362 
253.539764 0.363336 
254.704758 0.772311 
257.793243 0.339564 
263.746124 0.414433 
263.782227 0.353129 
264.671356 0.422281 
266.868469 0.791564 
273.220245 0.322254 
277.381775 0.530276 
278.468964 0.982542 
279.323242 1.174391 
290.653168 1.453911 
292.900696 1.210295 
310.61853 0.417387 
311.032776 1.305425 
316.49176 0.368129 
320.117218 0.464012 
322.412292 0.345638 
323.567627 0.310742 
325.377747 0.803681 
325.425476 0.389841 
337.334473 0.863809 
344.129547 1.213256 
344.485748 0.855589 
344.9758 1.141734 
346.488281 0.73403 
347.38504 0.83423 
349.806458 0.49466 
359.036591 0.514489 
366.192902 0.534552 
366.676544 1.454104 
369.503326 0.763465 
373.310852 0.183133 
394.997437 1.017515 
397.320312 1.04788 
413.733459 0.270118 
418.890198 0.896593 
424.75235 1.572436 
427.11084 0.572574 
430.916199 0.973003 
438.097015 0.205824 
448.955414 0.587993 
455.498688 0.752501 
455.807159 0.183832 
463.650177 0.796959 
466.789886 1.112899 
492.939117 1.141482 
501.493683 0.488217 
514.898071 0.517065 
526.049866 0.195378 
548.186768 1.098021 
557.489441 0.377813 
570.585022 1.235919 
572.371216 0.36864 
577.680847 0.461637 
581.979187 1.182202 
598.339233 1.174804 
607.556274 1.01077 
609.140686 1.089608 
624.177551 0.89842 
624.319153 0.546194 
646.876038 0.208942 
650.542847 1.184511 
651.036438 0.966208 
666.441711 1.219398 
674.400024 0.878685 
693.878052 0.519205 
710.891785 1.151407 
719.53363 0.913629 
721.821533 0.560195 
738.947021 0.527909 
743.635681 0.393047 
763.642944 1.101505 
792.742371 1.40116 
795.985107 1.081866 
799.907471 1.377012 
824.929871 1.294235 
857.364868 1.352849 
863.665161 0.256294 
869.868286 0.653005 
880.818298 0.489624 
923.996216 0.841941 
END IONS

