BEGIN IONS
PEPMASS=103.05
CHARGE=1+
COMPOUNDNAME=CYCLOSERINE
LIBRARYQUALITY=3
SMILES=N/A
INCHIKEY=DYDCUQKUCUHJBH-UWTATZPHSA-N
INCHI=InChI=1S/C3H6N2O2/c4-2-1-7-5-3(2)6/h2H,1,4H2,(H,5,6)/t2-/m1/s1
MSLEVEL=2
SOURCE_INSTRUMENT=N/A-ESI-QFT
FILENAME=library_mgf.mgf
SEQ=*..*
IONMODE=positive
ORGANISM=MONA
NAME=CYCLOSERINE [M+H]+
PI=MoNA
DATACOLLECTOR=MoNA:VF-NPL-QEHF027812
PUBMED=N/A
SUBMITUSER=mwang87
TAGS=
SPECTRUMID=CCMSLIB00004721393
SCANS=27812
50.380932 0.019722 
50.455463 0.019958 
50.49057 0.018997 
51.758286 0.019142 
51.786766 0.018429 
51.842121 0.022188 
52.312473 0.02106 
52.847984 0.02148 
53.002541 0.067219 
53.038883 0.019233 
53.428505 0.021266 
53.833611 0.019988 
54.022175 0.022109 
54.086182 0.020486 
54.442162 0.017628 
54.540871 0.022383 
55.054482 0.760442 
55.934616 0.028652 
56.049732 2.016561 
56.201614 0.020468 
56.38485 0.023101 
56.408497 0.018464 
56.965057 0.167389 
57.044968 0.18191 
57.070129 0.297538 
57.44318 0.024456 
57.663048 0.018444 
57.935013 0.265094 
58.028988 47.307858 
58.042004 0.024889 
58.065361 7.557854 
58.237911 0.020385 
58.571182 0.021344 
58.860794 0.020982 
59.02422 0.047931 
59.03231 1.025041 
59.049416 0.070291 
59.060486 0.018612 
59.068718 0.018771 
59.205936 0.019812 
59.930462 0.050848 
60.044598 6.02584 
60.055763 0.027192 
60.08099 18.104984 
60.08741 0.018128 
61.039822 3.850499 
61.08429 0.447519 
62.01339 0.02224 
64.105804 0.021766 
64.215599 0.020235 
65.642242 0.021348 
65.687836 0.020064 
67.453232 0.023216 
67.631767 0.017757 
68.201927 0.02186 
69.044838 0.026614 
69.179688 0.0202 
70.028763 2.204692 
71.060295 0.021401 
71.366295 0.021071 
71.746689 0.02281 
72.05555 0.025319 
72.080788 2.630313 
72.103134 0.022236 
73.039673 0.194397 
73.064812 1.521103 
73.084129 0.03064 
74.023636 0.132447 
74.06002 2.453536 
74.09642 15.714152 
74.389801 0.022206 
75.055298 30.292406 
75.058876 0.028887 
75.099762 0.588973 
76.039314 0.054083 
76.058617 0.724112 
76.597305 0.021111 
77.106682 0.020012 
78.151108 0.018804 
78.506561 0.020239 
78.737503 0.01953 
80.184952 0.019676 
80.316803 0.025193 
83.760323 0.024721 
83.81041 0.019269 
84.044434 0.182074 
84.080772 0.3691 
84.088806 0.039154 
85.039574 0.734929 
85.176033 0.019777 
85.842628 0.024869 
85.979546 0.022153 
86.023521 0.117799 
86.034721 0.020692 
86.059975 0.426431 
86.096298 0.274762 
86.554153 0.021971 
86.557129 0.021021 
87.031456 0.026024 
87.044037 0.710022 
87.055283 2.489736 
87.338112 0.018197 
87.959213 0.022674 
88.039268 3.15831 
88.117554 0.020772 
88.25338 0.022773 
89.674187 0.024024 
89.90818 0.022228 
90.529175 0.022071 
91.470245 0.021525 
91.767822 0.019639 
92.024155 0.018814 
92.184387 0.024487 
92.772865 0.022761 
93.180191 0.01994 
95.049789 0.020004 
95.743538 0.018817 
96.558624 0.022711 
97.401016 0.01982 
98.52594 0.023818 
98.605911 0.017841 
98.940651 0.024759 
99.144745 0.023501 
99.587379 0.020336 
100.926247 0.021293 
101.003166 38.573502 
101.071098 0.082667 
101.079025 2.359333 
101.107315 0.593041 
101.906853 0.184344 
101.999168 0.027964 
102.002563 1.793411 
102.006538 4.689811 
102.054962 18.046898 
102.066078 1.09697 
102.091362 0.861024 
102.127708 100.0 
102.914589 0.77976 
102.968491 0.026216 
102.998932 14.543085 
103.007156 0.560313 
103.05024 2.448692 
103.054077 0.417 
103.058189 0.798927 
103.061691 0.021368 
103.086578 0.217214 
103.124916 0.208582 
103.131035 7.32923 
103.430893 0.023085 
104.002258 0.213419 
104.034157 2.02374 
104.061867 0.024847 
104.07077 0.027323 
104.081833 0.410951 
104.106949 19.471527 
104.134377 0.027936 
104.500023 0.019651 
104.91011 0.025578 
105.065765 0.167232 
105.069817 0.532926 
106.758377 0.018392 
107.256897 0.023008 
107.484566 0.024258 
108.026825 0.018622 
108.362038 0.026737 
108.522331 0.023927 
114.949036 0.022361 
116.340805 0.019571 
116.794052 0.022121 
119.013641 0.044952 
119.91748 0.076718 
120.925224 0.984905 
121.922783 0.027829 
122.191261 0.024389 
122.920761 0.029223 
122.940956 0.033345 
123.778107 0.021987 
END IONS

