BEGIN IONS
PEPMASS=1318.75
CHARGE=1+
COMPOUNDNAME=POLYMYXIN B SULFATE
LIBRARYQUALITY=3
SMILES=N/A
INCHIKEY=HFMDLUQUEXNBOP-UHFFFAOYSA-N
INCHI=InChI=1S/C56H98N16O13.H2O4S/c1-7-32(4)13-11-12-16-44(75)63-36(17-23-57)51(80)72-46(34(6)74)56(85)68-39(20-26-60)48(77)67-41-22-28-62-55(84)45(33(5)73)71-52(81)40(21-27-61)65-47(76)37(18-24-58)66-53(82)42(29-31(2)3)69-54(83)43(30-35-14-9-8-10-15-35)70-49(78)38(19-25-59)64-50(41)79;1-5(2,3)4/h8-10,14-15,31-34,36-43,45-46,73-74H,7,11-13,16-30,57-61H2,1-6H3,(H,62,84)(H,63,75)(H,64,79)(H,65,76)(H,66,82)(H,67,77)(H,68,85)(H,69,83)(H,70,78)(H,71,81)(H,72,80);(H2,1,2,3,4)
MSLEVEL=2
SOURCE_INSTRUMENT=N/A-ESI-QFT
FILENAME=library_mgf.mgf
SEQ=*..*
IONMODE=positive
ORGANISM=MONA
NAME=POLYMYXIN B SULFATE [M+NH4]+
PI=MoNA
DATACOLLECTOR=MoNA:VF-NPL-QEHF027928
PUBMED=N/A
SUBMITUSER=mwang87
TAGS=
SPECTRUMID=CCMSLIB00004721509
SCANS=27928
93.025154 0.133706 
93.056114 0.119525 
93.06974 0.129821 
93.072929 0.122917 
94.642609 0.113372 
98.071297 0.283349 
100.0868 2.19927 
101.070946 100.0 
101.074799 1.726228 
101.78894 0.130251 
102.054955 0.291721 
102.074219 3.345407 
103.054276 0.174607 
103.090492 0.116125 
103.682487 0.131067 
105.683136 0.123255 
106.041016 0.136697 
106.59613 0.128235 
107.014366 0.133734 
109.101097 0.532703 
109.573906 0.116462 
110.625282 0.118958 
111.055038 0.310569 
112.075531 0.334895 
112.265671 0.127837 
113.070885 1.361115 
113.170235 0.137766 
115.915375 0.124867 
116.82132 0.123084 
117.700699 0.133098 
119.08149 14.775196 
119.755157 0.116995 
120.054764 0.149033 
120.080765 30.746094 
120.085175 0.684431 
120.293274 0.118155 
120.331604 0.123193 
121.076195 0.277316 
121.084023 2.113526 
121.468346 0.1475 
121.959305 0.136278 
122.914543 0.117245 
123.055206 2.101408 
123.11676 1.926979 
124.119614 0.114573 
126.807068 0.114584 
127.086449 4.899183 
128.08139 0.177531 
129.394318 0.136463 
137.070618 0.303 
137.103271 0.1284 
139.086594 2.776191 
139.896545 0.125233 
140.081741 1.503433 
140.118057 0.134473 
141.06575 1.310315 
141.595428 0.123455 
143.48201 0.11657 
149.070786 2.251575 
154.577072 0.140963 
155.344223 0.143595 
156.113159 2.188535 
157.097137 9.955452 
157.108337 0.739425 
158.092422 3.571955 
161.700485 0.117866 
161.831268 0.129715 
165.102173 0.131153 
166.097427 6.310263 
167.055359 0.667811 
167.081497 4.833597 
168.07695 0.164508 
169.133224 0.577348 
171.663864 0.140153 
174.123627 4.109475 
176.376511 0.129628 
180.837708 0.132047 
182.092316 0.489483 
183.076523 0.118102 
183.123962 21.457251 
183.132248 0.189169 
184.107986 29.533779 
184.127441 0.469625 
185.09198 5.827697 
185.111496 1.611883 
187.563995 0.14262 
188.102768 0.148723 
188.536789 0.141074 
191.199341 0.151117 
194.092499 1.272027 
195.123779 0.137296 
196.586258 0.119662 
197.128006 0.143683 
200.036133 0.125713 
201.134583 26.326178 
202.118546 62.027645 
202.135483 0.344826 
203.121933 3.780405 
204.15094 0.124091 
205.717072 0.120665 
206.091507 0.15063 
209.128448 5.536333 
209.164703 1.641216 
211.118912 2.37085 
212.102875 2.646843 
213.102463 0.257708 
213.134674 0.653563 
214.154846 13.638175 
214.273483 0.129161 
218.036774 0.121042 
219.146103 2.183251 
222.753738 0.130959 
223.11879 0.587026 
223.180359 9.964579 
224.103378 0.438831 
224.139206 1.213272 
224.183899 0.342322 
225.042709 1.120886 
226.043488 0.136349 
227.175415 4.235875 
230.128754 6.349843 
231.112488 0.867472 
233.164597 42.750656 
234.168259 6.458659 
239.095032 0.926575 
239.150085 4.630575 
240.145386 5.521089 
240.206741 0.452027 
241.129303 4.915808 
241.190826 17.517967 
242.194336 1.451148 
248.138992 10.719661 
249.134186 0.476673 
250.118744 0.946295 
257.160522 5.710448 
258.123413 1.24148 
258.156281 0.604726 
260.541351 0.129736 
261.159607 29.748537 
262.162933 3.950857 
265.132446 0.119209 
266.161072 5.24094 
266.186157 0.283247 
267.144775 9.932851 
268.126984 0.132499 
268.148285 0.151147 
270.157166 0.303193 
271.143982 0.13423 
280.201416 3.578614 
281.160095 0.123776 
283.796387 0.153834 
284.142639 0.118517 
284.171326 38.612572 
285.008728 0.314828 
285.155273 15.068553 
285.173645 5.900787 
286.157898 1.248754 
293.672516 0.140378 
294.155914 0.512594 
294.666626 0.128404 
296.207886 5.019528 
296.233521 1.810785 
297.191925 2.142425 
297.216675 2.223431 
298.221344 0.177675 
299.061401 0.648735 
300.061829 0.136225 
301.196838 0.307391 
301.830811 0.13034 
302.182007 59.852757 
303.18515 8.678701 
304.163605 0.376574 
304.187622 0.223387 
306.154236 0.175336 
306.216644 0.289848 
307.674805 0.146861 
308.269806 0.133862 
312.166107 0.574246 
312.183472 0.117764 
314.218567 0.15632 
316.201324 0.92404 
323.182617 2.011105 
323.504822 0.121396 
324.16626 0.881931 
324.227783 1.095284 
326.186005 3.614473 
331.175476 0.545394 
341.192627 1.091903 
342.238464 1.746058 
343.212463 3.216155 
344.196259 1.197425 
344.218292 0.158354 
349.198242 1.227439 
350.181183 0.526808 
350.711365 0.134762 
359.028229 0.294214 
359.201843 0.291359 
360.239166 1.501919 
361.222961 21.520908 
361.246002 0.342198 
361.870148 0.129639 
362.226044 4.717695 
362.250549 0.181581 
366.224152 1.151741 
367.181366 0.151029 
367.208221 7.354474 
368.191162 0.895765 
370.24469 0.143206 
371.207062 6.669724 
372.209747 0.120634 
384.234985 6.922138 
385.217743 9.54547 
386.220978 0.581899 
387.2146 0.153037 
393.014709 0.149576 
402.245697 10.7839 
403.229004 6.766915 
404.230743 1.084522 
405.22522 0.314436 
406.223877 0.154889 
406.280304 0.145641 
408.239288 0.294808 
410.275543 0.339966 
413.229614 0.838812 
414.212769 0.320233 
414.247986 0.145098 
414.742798 0.139308 
415.235596 0.169163 
423.252594 0.826029 
424.291321 5.233933 
425.21286 0.122207 
425.273834 2.25261 
426.249695 0.173419 
426.278503 0.140128 
427.301971 0.191838 
428.284546 0.157018 
431.239655 7.792218 
432.224091 0.134332 
432.242584 0.135569 
433.722809 0.123885 
441.257568 0.467337 
441.318542 1.040202 
442.240601 0.903888 
442.299683 1.823368 
443.275635 16.111835 
444.257477 7.896295 
445.262878 0.867037 
448.270691 0.140463 
449.250092 11.089874 
450.251495 2.052407 
456.262085 0.590908 
460.302673 0.740799 
461.286774 35.133675 
462.28952 7.886908 
463.29599 0.16137 
464.279114 0.487226 
464.776489 0.595784 
466.487091 0.152466 
467.272491 1.229322 
468.07782 0.139291 
468.257721 0.323713 
471.27066 1.943337 
473.204773 0.152888 
473.282623 0.267274 
482.286835 0.320526 
484.299133 0.195838 
485.281982 8.260321 
486.284668 0.358976 
490.870544 0.148609 
491.210754 0.30171 
493.268616 0.138468 
498.371307 0.142441 
499.302765 0.490099 
500.298187 0.495914 
503.292206 8.500732 
504.295959 1.095533 
505.295898 0.157931 
507.203094 0.563409 
508.210297 0.131255 
508.299713 0.223902 
509.28653 0.171779 
510.338348 0.852107 
516.325928 0.309685 
517.31604 0.135803 
524.354309 5.871816 
524.774963 0.138264 
525.327515 1.10472 
526.313416 3.029478 
527.296387 0.355928 
531.302979 1.202467 
543.339539 12.190962 
544.323608 8.216777 
545.323975 0.189817 
553.319763 0.152213 
554.305481 0.168559 
561.349792 4.801013 
562.333679 7.9831 
563.33551 0.826081 
566.365723 0.161957 
570.126587 0.162404 
571.332336 0.138646 
575.860229 0.148598 
576.353455 0.161831 
582.34906 1.026897 
583.336426 0.144952 
584.874084 0.150931 
585.346497 2.097649 
586.724426 0.144517 
589.383545 0.181639 
593.376587 0.747402 
594.375366 0.177246 
600.359375 1.363216 
603.356445 1.955004 
607.390869 1.418476 
608.369446 0.355168 
610.336121 0.166381 
614.339661 0.88373 
618.373596 0.150648 
618.747803 0.153481 
624.360107 0.131706 
625.400146 3.465456 
626.377502 1.835456 
627.361694 2.517177 
628.362915 0.322305 
629.398315 0.50448 
632.351257 1.961165 
643.409363 6.742079 
644.385559 17.686699 
645.382874 7.570337 
646.384644 0.563893 
648.380615 0.463907 
650.361633 3.212319 
651.361572 0.183414 
652.323975 0.714674 
653.359253 0.406957 
654.359741 0.136297 
659.400635 0.135263 
662.397827 22.663914 
663.399841 8.078784 
664.401978 2.057326 
665.396545 0.351892 
669.352051 1.036173 
672.379578 0.174275 
674.388794 0.161076 
679.923828 0.134662 
682.412231 4.943355 
683.407715 1.611695 
691.412048 0.148799 
692.38916 0.169086 
693.441101 0.168108 
699.430237 0.254896 
700.422791 2.926621 
701.418152 0.339277 
707.453857 0.331838 
708.433228 2.009086 
709.41864 2.093549 
710.006165 0.169766 
710.197083 0.485539 
710.270203 0.44482 
710.330139 0.146795 
710.403625 0.497484 
711.453552 0.734635 
712.436768 0.273076 
719.409424 0.157257 
725.464783 4.784391 
726.440369 10.751757 
727.42749 10.94908 
728.420776 3.101835 
729.463135 0.132775 
730.434998 2.014366 
731.431763 0.183189 
743.475891 5.52976 
744.450134 54.290913 
745.449402 27.192974 
746.44635 7.680934 
747.441406 0.15244 
748.444092 1.230152 
754.437195 0.145328 
756.449097 0.312067 
758.461243 0.168098 
762.460876 33.350231 
763.462036 14.410591 
764.462097 3.088934 
780.448608 2.448885 
781.45459 0.699864 
783.464905 0.15216 
792.453918 0.369256 
810.460876 0.165384 
812.517883 0.150183 
823.940125 0.149883 
825.527893 2.508338 
826.513611 1.207265 
827.489197 1.576901 
828.480347 0.601389 
829.528198 0.150633 
843.53772 2.050701 
844.518311 2.325369 
845.501282 5.256307 
846.496887 1.618087 
847.504395 0.155433 
862.512756 0.148993 
863.507629 4.393599 
864.513733 0.384385 
865.510864 0.169085 
872.530457 0.478975 
873.526855 0.191605 
883.522766 1.077066 
884.508301 0.932253 
901.533936 2.89428 
902.523987 0.315705 
910.527893 0.981449 
911.522156 0.149128 
916.288635 0.145964 
927.546875 5.34312 
928.539978 5.364826 
929.538513 1.328007 
932.549011 0.148112 
945.562317 15.946766 
946.559204 9.6613 
947.560547 1.961154 
949.536316 0.143809 
963.570618 8.451732 
964.573608 4.471745 
965.570557 0.308087 
967.734497 0.133024 
984.631958 0.161558 
1067.667725 1.137132 
1068.662842 0.67393 
1071.657837 0.794568 
1072.656982 0.279097 
1085.677368 4.959669 
1086.676514 2.548548 
1087.676514 0.658461 
1088.671875 0.172042 
1089.67334 1.786403 
1090.670898 0.774605 
1091.674927 0.575988 
1103.686646 6.247177 
1104.68811 2.726958 
1105.694214 3.006068 
1106.691406 1.168082 
1107.680664 0.317841 
1109.692627 1.245609 
1110.690674 0.825101 
1117.681763 0.182622 
1118.673218 0.172527 
1121.691162 0.154782 
1122.679565 0.145102 
1123.703979 6.254639 
1124.703979 3.888915 
1125.70166 0.547178 
1127.705688 0.35116 
1131.692505 0.160573 
1132.696533 0.558981 
1133.689209 0.131912 
1135.704468 0.983806 
1136.700806 1.001763 
1137.69165 0.227951 
1138.713135 0.142362 
1139.697144 1.022344 
1140.700806 0.583898 
1141.717651 2.169045 
1142.727051 0.59687 
1148.690918 0.177887 
1149.713135 5.699133 
1150.711426 5.446526 
1151.712402 1.262009 
1152.709717 0.173043 
1153.718994 9.509919 
1154.713501 7.497185 
1155.709106 2.205638 
1157.712036 1.290623 
1158.717651 0.211475 
1159.71521 0.208272 
1165.709229 0.312075 
1166.70813 1.102934 
1167.733521 20.651148 
1168.7323 19.125772 
1169.729858 8.898101 
1170.726196 1.942565 
1171.72998 20.115623 
1172.734497 13.795138 
1173.722534 5.261992 
1174.727173 0.345696 
1175.709106 0.237139 
1181.718384 0.175862 
1183.72168 1.503399 
1184.718018 1.586607 
1185.745239 46.525684 
1186.747314 35.023594 
1187.746216 13.818572 
1188.739624 2.786326 
1189.73999 12.500576 
1190.742676 8.041532 
1191.739502 1.899753 
1201.737061 1.870151 
1202.739014 1.14455 
1203.754272 32.259178 
1204.759399 21.329491 
1205.759277 7.935768 
1206.759277 0.532638 
1211.71814 3.07418 
1212.718628 0.919201 
1213.727173 0.170391 
1225.734863 10.834302 
1226.737183 7.201161 
1227.73584 1.24406 
1316.943726 12.135452 
1317.748657 7.400677 
1317.928101 12.289808 
1318.753296 4.413364 
1318.92981 5.684359 
1319.88147 1.161365 
1320.754761 0.433969 
END IONS

