BEGIN IONS
PEPMASS=407.219
CHARGE=1+
COMPOUNDNAME=Roquefortine C
LIBRARYQUALITY=3
SMILES=N/A
INCHIKEY=SPWSUFUPTSJWNG-LIMLNZRCSA-N
INCHI=InChI=1S/C22H23N5O2/c1-4-21(2,3)22-10-17-18(28)25-16(9-13-11-23-12-24-13)19(29)27(17)20(22)26-15-8-6-5-7-14(15)22/h4-9,11-12,17,20,26H,1,10H2,2-3H3,(H,23,24)(H,25,28)/b16-9-/t17-,20-,22+/m0/s1
MSLEVEL=2
SOURCE_INSTRUMENT=N/A-ESI-QFT
FILENAME=library_mgf.mgf
SEQ=*..*
IONMODE=positive
ORGANISM=MONA
NAME=Roquefortine C [M+NH4]+
PI=MoNA
DATACOLLECTOR=MoNA:VF-NPL-QEHF016412
PUBMED=N/A
SUBMITUSER=mwang87
TAGS=
SPECTRUMID=CCMSLIB00004707475
SCANS=16412
50.542133 0.039169 
50.578682 0.056534 
51.376114 0.026815 
51.424541 0.053087 
51.944672 0.044822 
52.40564 0.053934 
52.618114 0.027241 
52.689724 0.042813 
52.988693 0.023699 
53.173676 0.046109 
53.196404 0.029532 
53.240021 0.042101 
53.368084 0.053544 
53.386559 0.04553 
53.59803 0.046891 
54.379692 0.047742 
54.759903 0.051544 
55.018074 0.061711 
55.678596 0.048943 
55.880791 0.026163 
55.916599 0.044973 
56.154568 0.027086 
56.271671 0.046776 
56.696922 0.043124 
57.070133 0.063036 
57.127213 0.031193 
57.578884 0.054406 
61.010784 0.068838 
61.348858 0.047136 
61.774372 0.050651 
62.018757 0.056811 
62.057121 0.031649 
62.271374 0.035111 
63.727455 0.052204 
64.472542 0.05607 
66.412819 0.045311 
67.054352 0.228809 
67.483917 0.041722 
68.332756 0.061347 
68.417351 0.043847 
68.552399 0.052494 
69.044876 7.55076 
69.07003 20.981689 
69.160408 0.045202 
70.048241 0.069466 
70.073357 1.024498 
70.688324 0.026284 
70.758224 0.04525 
72.080788 0.206182 
72.850067 0.031426 
73.493279 0.038359 
74.730881 0.041652 
75.28035 0.0552 
75.801498 0.048402 
76.21138 0.042273 
76.477119 0.033107 
76.550423 0.033801 
76.890747 0.049485 
77.784943 0.026483 
77.871323 0.023719 
77.979088 0.051963 
78.427437 0.031999 
78.682922 0.034837 
78.740021 0.033266 
79.454887 0.041821 
80.364296 0.043397 
81.044823 6.036258 
81.069939 0.081317 
81.485054 0.057461 
82.047821 0.045196 
82.052658 0.273452 
83.060524 0.051579 
83.282562 0.053065 
84.064743 0.044797 
84.292 0.029063 
84.678078 0.030578 
85.039703 7.776789 
85.36235 0.055729 
86.950714 0.040445 
87.771797 0.02735 
87.930862 0.066397 
89.516754 0.026837 
89.745689 0.042198 
89.785873 0.067052 
93.044823 0.595217 
93.339211 0.038408 
93.958977 0.056405 
94.485634 0.033898 
94.489304 0.037752 
95.024086 3.611727 
95.0494 0.135949 
95.060402 0.342207 
95.589355 0.033679 
96.031799 0.129343 
96.055588 0.181161 
97.039703 0.531653 
97.486732 0.043031 
101.311363 0.06791 
102.148911 0.05017 
102.924309 0.051097 
104.481506 0.059086 
104.585762 0.030154 
105.219719 0.047533 
106.040039 3.214627 
106.064827 0.140833 
106.867699 0.056731 
107.047859 0.668471 
107.725929 0.049081 
108.055656 14.187528 
108.554916 0.03079 
109.039696 3.723474 
109.059067 0.408584 
109.063438 2.015344 
110.071251 1.173864 
110.533401 0.060391 
111.055344 0.137139 
113.034584 7.48791 
114.041298 0.058456 
114.127922 0.082949 
117.11956 0.054321 
118.065079 0.071438 
120.055656 1.779556 
120.080795 0.127048 
120.672173 0.053454 
121.040283 0.06944 
122.071281 0.671002 
122.691475 0.04992 
123.846794 0.054365 
124.050591 4.327581 
125.034561 0.394831 
126.066238 0.627127 
126.09742 0.062685 
129.070206 0.068075 
130.065216 69.473663 
130.070847 0.931331 
130.115967 0.050422 
131.068481 7.237214 
132.056168 0.037703 
132.072052 0.072316 
132.080765 3.048216 
133.083786 0.067417 
133.852051 0.050339 
134.071579 0.060544 
135.066101 0.04996 
136.050644 7.223927 
137.053833 0.092842 
137.058426 0.172435 
137.082184 1.137143 
138.066406 0.16647 
139.38768 0.044551 
140.200607 0.030108 
141.984207 0.055547 
142.065155 2.78235 
143.073029 3.104809 
143.084 0.035827 
144.080978 4.234608 
145.076096 1.543689 
145.084106 0.29489 
145.541855 0.050854 
146.060135 12.950091 
146.079346 0.048545 
147.063507 0.561051 
147.330917 0.035039 
148.050613 2.76875 
148.075836 0.052556 
149.034531 0.058499 
149.082413 0.629398 
150.10701 0.043791 
151.037857 0.081166 
151.061401 0.241211 
152.04541 4.018463 
152.508072 0.066447 
152.788849 0.066472 
153.077194 0.180747 
154.065338 0.857568 
154.776703 0.040019 
155.07312 0.380548 
155.313232 0.062386 
156.080978 4.774717 
157.076569 0.728387 
157.083557 0.247045 
157.369995 0.041367 
158.060135 2.865785 
158.083862 0.185507 
159.091843 2.56749 
160.075699 0.870663 
160.57077 0.057626 
160.896912 0.056079 
162.029922 14.33863 
162.065353 0.027118 
163.033539 0.62783 
163.061569 13.155032 
164.045532 6.988916 
164.064453 0.332427 
164.06987 0.042539 
164.781082 0.052272 
165.048645 0.069485 
165.077225 9.060246 
165.084793 0.061153 
165.406342 0.029258 
166.080292 0.128871 
168.08107 1.354118 
169.076111 2.168532 
169.088669 3.058886 
170.060135 5.447352 
170.096542 0.15555 
171.055603 0.119164 
171.063965 0.104268 
171.091782 2.502568 
172.075714 0.75524 
172.0952 0.177 
172.112 0.061355 
173.10762 0.065215 
175.0616 1.527121 
175.086639 0.302719 
176.045593 0.898587 
176.069962 0.051684 
177.077194 3.371347 
179.056442 4.093675 
180.040985 0.20694 
180.064407 0.167515 
180.095932 0.138383 
180.426956 0.045926 
181.072159 3.144822 
181.088364 0.069007 
182.060059 1.325092 
182.096497 0.349399 
183.091583 0.110197 
183.104538 5.783242 
184.075287 0.106841 
184.112381 3.404305 
185.070999 3.836744 
185.083542 0.464443 
186.055222 0.064216 
187.086258 0.056267 
189.522003 0.040906 
191.056412 13.093763 
192.040634 14.029228 
192.064255 30.589073 
193.044708 0.165414 
193.07225 100.0 
194.076355 9.112819 
196.112259 3.193681 
196.683517 0.055478 
197.070892 1.113897 
197.116867 0.051127 
198.127777 51.827435 
199.086731 1.572085 
199.099197 1.075076 
199.131302 8.659681 
200.091843 0.060451 
200.134842 0.159196 
201.066147 0.042743 
203.056107 0.24677 
203.091843 0.051973 
204.100632 0.080435 
205.072144 12.711481 
206.079376 2.6748 
207.051498 11.416675 
207.088043 5.676375 
208.059357 3.97539 
208.081375 0.060819 
208.092102 5.075742 
208.112579 0.045339 
209.067093 27.055458 
209.098083 0.495271 
210.071091 2.234941 
210.105804 4.062236 
212.081833 0.045982 
212.107056 0.330297 
213.065887 0.14454 
213.817505 1.499504 
213.824493 1.357848 
214.122665 15.907155 
214.839722 0.039352 
215.126099 2.236583 
218.117996 0.045225 
218.910553 0.031034 
220.08754 0.24145 
220.99826 0.053089 
222.102859 0.361411 
224.081833 0.1026 
225.066101 0.281094 
226.0979 0.09318 
230.316391 0.057016 
231.82048 0.045834 
232.468597 0.063774 
233.925949 0.062532 
234.102631 0.026761 
235.097351 0.14119 
236.082001 1.296586 
236.107162 0.144387 
237.110245 0.031632 
238.09758 0.66203 
243.075714 0.074767 
247.097961 0.403407 
248.082169 0.16284 
249.11348 2.161088 
250.097595 0.540295 
250.117371 0.058532 
252.075821 0.06582 
255.773865 0.033262 
259.097809 0.169198 
261.076843 0.326699 
262.08194 0.790396 
263.084412 0.177559 
263.087921 0.159786 
264.088654 0.136788 
265.108734 0.77706 
266.092041 0.091323 
270.87204 0.038363 
275.092773 0.877819 
276.076691 0.09334 
276.098877 0.082452 
277.108734 2.464995 
279.109253 0.032709 
280.112396 0.044772 
284.593201 0.033839 
289.071411 0.042043 
291.112305 0.123049 
292.119537 1.259689 
293.103363 1.312265 
293.12204 0.032015 
294.08728 0.540628 
294.829224 0.029259 
297.075897 0.051093 
299.46347 0.036488 
302.103821 0.676029 
303.087646 0.087389 
304.119781 0.204955 
304.777649 0.047358 
305.957672 0.050129 
306.098602 4.438903 
307.103973 0.618129 
309.035278 0.05711 
310.841339 0.03387 
312.839508 0.361646 
319.105835 0.610229 
320.114349 3.989324 
321.09845 0.441006 
321.117828 0.268379 
322.129303 0.054206 
324.685211 0.056509 
332.113892 0.521447 
333.118988 0.065672 
335.831726 0.36518 
336.109772 0.076947 
336.838745 0.361236 
337.148956 0.737068 
338.124878 11.566967 
338.148163 0.310211 
339.128265 2.528657 
339.164764 0.127019 
340.133789 0.039415 
344.8302 0.099063 
350.124786 0.602217 
351.847046 0.348142 
353.84198 2.90009 
354.31134 0.051245 
357.424255 0.059183 
371.854065 0.030413 
386.87619 0.06176 
403.681305 0.060719 
404.794098 0.049418 
406.187836 0.14296 
407.188782 0.075784 
413.688019 0.037099 
415.111267 0.066589 
417.865601 0.053064 
423.84256 0.051536 
430.765503 0.060811 
430.785583 0.056422 
END IONS

