BEGIN IONS
PEPMASS=407.221
CHARGE=1+
COMPOUNDNAME=MoNA:952896 Lincomycin
LIBRARYQUALITY=3
SMILES=N/A
INCHIKEY=OJMMVQQUTAEWLP-UHFFFAOYSA-N
INCHI=InChI=1S/C18H34N2O6S/c1-5-6-10-7-11(20(3)8-10)17(25)19-12(9(2)21)16-14(23)13(22)15(24)18(26-16)27-4/h9-16,18,21-24H,5-8H2,1-4H3,(H,19,25)
MSLEVEL=2
SOURCE_INSTRUMENT=LC-ESI-QFT-LC-ESI-QFT
FILENAME=output_mgf.mgf
SEQ=*..*
IONMODE=
ORGANISM=MONA
NAME=MoNA:952896 Lincomycin [M+H]+
PI=MoNA
DATACOLLECTOR=MoNA
PUBMED=N/A
SUBMITUSER=mwang87
TAGS=
SPECTRUMID=CCMSLIB00000569170
SCANS=6421
53.0022 2.856302 
53.0386 1.307964 
53.9975 0.925101 
54.0339 2.577342 
55.0417 2.438353 
55.0543 11.399653 
56.0495 3.032852 
57.0573 1.887087 
57.0698 0.14132 
57.9872 0.509655 
58.0652 4.64664 
61.0107 0.800319 
65.0386 2.925121 
67.0417 13.522898 
67.0542 6.423883 
68.0495 55.486185 
69.0573 1.487708 
69.0699 5.596852 
70.0651 33.947043 
71.0731 0.155833 
72.0806 0.125247 
77.0386 0.109139 
78.0087 0.149201 
79.0542 1.717548 
80.0495 4.076975 
81.0574 3.063361 
82.0651 100.0 
83.0729 15.683994 
84.0808 2.923836 
91.0543 0.613138 
93.0699 0.408526 
94.0652 2.178397 
95.0491 0.215025 
95.0731 0.179518 
95.0855 0.558641 
96.0808 12.368579 
97.0888 1.051015 
98.0964 0.422964 
105.0447 0.56375 
108.0808 0.159385 
124.112 0.910157 
126.1278 5.738733 
END IONS

