BEGIN IONS
PEPMASS=265.131
CHARGE=1+
COMPOUNDNAME=Huperzine A
LIBRARYQUALITY=3
SMILES=N/A
INCHIKEY=ZRJBHWIHUMBLCN-UHFFFAOYSA-N
INCHI=InChI=1S/C15H18N2O/c1-3-11-10-6-9(2)8-15(11,16)12-4-5-14(18)17-13(12)7-10/h3-6,10H,7-8,16H2,1-2H3,(H,17,18)
MSLEVEL=2
SOURCE_INSTRUMENT=N/A-ESI-QFT
FILENAME=library_mgf.mgf
SEQ=*..*
IONMODE=positive
ORGANISM=MONA
NAME=Huperzine A [M+Na]+
PI=MoNA
DATACOLLECTOR=MoNA:VF-NPL-QEHF027222
PUBMED=N/A
SUBMITUSER=mwang87
TAGS=
SPECTRUMID=CCMSLIB00004720803
SCANS=27222
50.253998 16.871088 
50.55497 20.730009 
51.691166 11.098478 
51.953346 10.000892 
52.088173 2.502751 
52.350697 13.625156 
52.648895 2.582793 
52.926483 15.631049 
53.086811 10.307987 
53.257065 16.194963 
53.261116 13.324241 
53.688549 15.670739 
54.04517 16.407616 
54.412861 2.788094 
54.566895 16.634983 
55.347076 18.741949 
55.356133 2.891875 
55.469761 16.329269 
55.718227 2.281226 
56.161327 2.60756 
57.11079 20.624376 
57.391178 8.119677 
58.393742 10.644923 
59.368374 14.533249 
59.477497 3.267059 
59.48481 10.111371 
59.940323 18.409973 
59.966579 9.496484 
61.281609 18.078583 
61.603752 15.177735 
61.749332 18.298878 
62.02644 3.048059 
62.041454 17.277336 
62.227188 16.423985 
62.562279 19.497007 
62.639912 17.855207 
64.122192 20.519255 
65.233253 2.032547 
67.896538 16.100386 
68.129326 16.465536 
68.387573 3.527828 
70.036827 2.901715 
70.358269 13.028538 
70.902962 7.878113 
72.659111 21.865107 
73.179359 1.992233 
74.287956 18.856319 
75.155594 13.998307 
75.553581 16.92086 
75.872604 22.879753 
76.166893 8.604198 
76.303001 16.280785 
77.03653 16.481401 
77.364296 17.218824 
78.442337 17.66577 
79.461769 16.351582 
80.023376 29.959404 
80.083061 18.304909 
80.454842 18.543549 
80.593071 20.191786 
81.254395 14.917205 
82.294189 17.641365 
83.053375 16.285936 
85.430283 11.684148 
85.895409 3.103639 
89.0345 28.517181 
89.056686 8.226654 
89.797363 10.006584 
91.457153 10.831322 
93.735001 16.20192 
94.786896 17.679018 
95.238037 17.554419 
96.024391 19.08556 
96.982758 11.357473 
100.501808 2.008664 
100.571678 20.931437 
101.099434 7.010122 
101.419609 2.105205 
102.491219 3.296334 
105.541504 10.775369 
108.758728 8.699685 
108.762741 22.937967 
109.17585 16.739717 
110.954033 18.136589 
113.034073 16.756428 
115.319908 2.797824 
115.732155 16.671499 
115.812187 3.361942 
118.594376 15.869211 
120.325203 2.909816 
121.500076 19.228676 
124.182838 18.578173 
125.624664 9.588633 
126.490044 24.461811 
129.908234 20.210655 
131.012405 21.495777 
131.157822 3.636621 
131.233963 2.221184 
131.58165 10.385645 
137.419983 10.523917 
139.404541 17.830994 
140.577713 3.089797 
145.93895 2.221706 
150.430573 18.270611 
151.309036 1.962893 
151.316101 2.425996 
151.757614 17.488832 
152.909531 2.890158 
160.11084 17.804705 
161.674133 7.688375 
168.959564 21.429283 
172.611008 15.148827 
178.080185 17.399576 
180.089096 19.766136 
180.747375 18.247244 
181.042557 17.528341 
181.943283 22.774488 
184.121826 19.532272 
189.057861 18.001112 
197.740036 22.053808 
201.640808 18.223721 
203.142776 2.921321 
203.764572 11.846487 
211.567215 18.704763 
214.173477 18.396927 
216.154617 16.843138 
219.716583 100.0 
223.080276 16.915979 
237.789536 19.793386 
237.891434 21.26973 
249.102692 2.728423 
251.505341 20.208933 
252.813797 12.574911 
256.407013 8.205891 
267.134979 17.828484 
273.968384 21.839499 
276.179535 21.918171 
282.338623 10.822995 
284.283508 14.980821 
END IONS

