BEGIN IONS
PEPMASS=528.186
CHARGE=1+
COMPOUNDNAME=DAUNORUBICIN
LIBRARYQUALITY=3
SMILES=N/A
INCHIKEY=STQGQHZAVUOBTE-VGBVRHCVSA-N
INCHI=InChI=1S/C27H29NO10/c1-10-22(30)14(28)7-17(37-10)38-16-9-27(35,11(2)29)8-13-19(16)26(34)21-20(24(13)32)23(31)12-5-4-6-15(36-3)18(12)25(21)33/h4-6,10,14,16-17,22,30,32,34-35H,7-9,28H2,1-3H3/t10-,14-,16-,17-,22+,27-/m0/s1
MSLEVEL=2
SOURCE_INSTRUMENT=N/A-ESI-QFT
FILENAME=library_mgf.mgf
SEQ=*..*
IONMODE=positive
ORGANISM=MONA
NAME=DAUNORUBICIN [M+H]+
PI=MoNA
DATACOLLECTOR=MoNA:VF-NPL-QEHF003440
PUBMED=N/A
SUBMITUSER=mwang87
TAGS=
SPECTRUMID=CCMSLIB00004694503
SCANS=3440
50.240986 0.013077 
50.244537 0.011652 
50.647038 0.014092 
50.860207 0.012022 
51.881203 0.010024 
52.195045 0.012102 
52.323647 0.008018 
52.378162 0.015574 
53.817577 0.017952 
53.944691 0.016623 
54.183773 0.009898 
54.190304 0.010081 
54.238323 0.014927 
54.716812 0.016816 
55.256763 0.013784 
55.676563 0.015576 
57.034203 0.011499 
57.242962 0.015943 
57.787876 0.013901 
57.864841 0.008649 
58.065865 1.954978 
58.095673 0.015248 
59.183002 0.015481 
59.215416 0.014741 
60.045113 1.756198 
60.219673 0.012307 
60.784195 0.012057 
60.813435 0.010592 
61.029129 0.134197 
61.105507 0.009121 
61.422649 0.015543 
61.534191 0.011696 
61.660038 0.015811 
62.326263 0.009295 
63.424892 0.012722 
63.539207 0.011395 
63.735741 0.010013 
65.20752 0.011571 
65.320541 0.009596 
65.564438 0.014567 
65.881096 0.014701 
66.744446 0.009533 
67.054886 0.575924 
67.887596 0.012639 
68.050148 0.074256 
68.517509 0.009895 
69.034149 3.03 
69.65731 0.017758 
71.049774 1.85552 
71.157921 0.009148 
71.738449 0.010593 
72.045036 6.515937 
72.830894 0.009337 
73.048157 0.01429 
73.163979 0.016563 
73.487633 0.011755 
73.57972 0.009869 
74.431175 0.011573 
74.492813 0.01233 
74.658958 0.015948 
75.751389 0.012801 
76.598839 0.014297 
77.127792 0.008975 
77.739471 0.00725 
78.076553 0.015 
78.439331 0.008888 
79.841026 0.015974 
80.045921 0.013889 
80.727608 0.014998 
81.000122 0.010356 
81.080589 0.00784 
81.82489 0.008338 
82.187424 0.009167 
82.787918 0.008281 
82.878586 0.007133 
83.858238 0.013501 
83.979172 0.014328 
84.081314 0.292576 
84.276665 0.015546 
85.065186 0.022171 
85.25882 0.011132 
85.34108 0.018571 
85.576218 0.014721 
85.88781 0.014903 
86.060577 18.069157 
86.06369 0.189335 
87.063904 0.470282 
87.666702 0.016333 
88.744865 0.007703 
88.835693 0.012483 
89.00589 0.017226 
89.795998 0.011734 
90.758934 0.013242 
91.614479 0.013868 
92.720932 0.015309 
92.879036 0.017343 
93.446518 0.00859 
94.45533 0.0152 
94.468025 0.013569 
94.867844 0.01193 
95.049614 1.929129 
96.633049 0.01178 
97.205139 0.012472 
98.401085 0.011001 
98.974167 0.013515 
99.758171 0.007814 
100.358185 0.009864 
100.795074 0.018401 
101.244675 0.014477 
101.43145 0.008969 
101.99881 0.016565 
102.133041 0.008325 
103.018517 0.013433 
103.097778 0.013044 
103.423302 0.013584 
103.719528 0.01764 
104.070641 0.010388 
104.22258 0.015589 
104.534294 0.013506 
104.67997 0.014463 
104.739471 0.017247 
104.814369 0.009061 
105.034042 0.009613 
105.800919 0.00753 
106.140533 0.009567 
106.160393 0.014525 
107.158447 0.015015 
107.502167 0.011705 
108.277733 0.013514 
109.615456 0.013831 
111.341087 0.014871 
112.075867 0.872351 
113.059952 5.610177 
113.06424 0.018261 
114.063255 0.122185 
114.565392 0.015037 
115.964569 0.016675 
116.330353 0.008023 
116.759201 0.016158 
119.038078 0.032744 
119.155685 0.01799 
119.222633 0.013239 
120.967148 0.009907 
121.06488 1.362938 
121.26178 0.010939 
121.815186 0.010054 
124.192497 0.009261 
125.059227 0.017531 
125.20874 0.009602 
125.389336 0.010835 
125.415947 0.014859 
125.592865 0.014124 
125.760513 0.013182 
125.773643 0.013645 
125.94928 0.020523 
126.927017 0.00816 
127.030968 0.007869 
127.107147 0.014171 
127.393211 0.011845 
128.229874 0.010483 
129.541321 0.014239 
129.666946 0.007098 
130.086288 3.808609 
130.10022 0.010742 
130.179047 0.014136 
130.475571 0.008197 
131.327026 0.012737 
131.390717 0.010173 
131.844147 0.008984 
132.682098 0.008451 
133.028152 0.028244 
133.26741 0.01282 
135.044052 2.178128 
135.797623 0.012732 
136.047699 0.028449 
136.703644 0.010889 
137.624802 0.00775 
140.347443 0.015948 
140.393692 0.014272 
140.809586 0.015733 
142.41066 0.013242 
144.885086 0.015501 
145.095428 0.014555 
145.97168 0.010432 
148.546783 0.01218 
159.205719 0.011663 
159.572571 0.018777 
160.431549 0.010445 
160.775253 0.010527 
161.57991 0.010118 
162.829926 0.011227 
162.920258 0.015538 
163.758698 0.017084 
165.45842 0.013218 
166.812775 0.015987 
167.046234 0.011729 
167.310318 0.015351 
169.039459 0.017236 
171.659912 0.007858 
174.706665 0.009386 
177.410812 0.008408 
178.119522 0.011566 
181.61525 0.007863 
182.011398 0.014557 
183.167938 0.008135 
183.863449 0.014962 
187.033035 0.013619 
188.504425 0.015391 
190.628677 0.009152 
192.917709 0.01373 
199.059875 0.007836 
199.337723 0.015235 
200.303452 0.016134 
203.033768 0.33982 
203.115234 0.00978 
204.95192 0.014915 
208.483887 0.017535 
210.743271 0.007845 
211.609772 0.012823 
213.134811 1.334263 
215.118942 0.009626 
215.966751 0.010009 
217.727692 0.008739 
218.349625 0.008175 
221.973221 0.007728 
226.030823 0.011744 
228.721634 0.009813 
230.334732 0.013043 
231.783997 0.009235 
237.090256 0.017215 
237.15654 0.010104 
237.675537 0.014831 
237.817322 0.010419 
241.655792 0.016291 
242.161407 0.00878 
242.935715 0.007897 
245.018753 0.007626 
245.045044 0.017405 
245.076874 0.0123 
247.016251 0.010668 
247.07486 0.015073 
249.090622 0.042089 
250.216522 0.016086 
251.853088 0.009193 
252.283707 0.015296 
254.777908 0.017822 
258.251282 0.010051 
261.05246 0.016976 
262.061371 0.033221 
265.085571 0.170031 
267.978851 0.013704 
271.448639 0.017092 
273.84317 0.016673 
275.069519 0.086082 
276.07251 0.011491 
277.085449 0.373628 
278.089355 0.015221 
279.064911 0.013308 
282.97937 0.011101 
289.071472 0.008944 
290.05719 0.198409 
291.063721 0.015526 
292.25885 0.015485 
293.080414 2.599213 
293.448669 0.013801 
294.083954 0.28314 
294.558075 0.010738 
295.022644 0.015761 
296.678406 0.013435 
298.314453 0.017334 
299.09964 0.009939 
302.112946 0.010699 
303.064667 0.817059 
304.067719 0.030905 
304.11319 0.013578 
306.051941 27.50095 
306.756226 0.015409 
307.055176 5.040861 
308.057678 0.10879 
309.114685 0.013288 
311.904633 0.011762 
320.067139 0.063809 
321.075226 100.0 
322.078552 19.620426 
322.099182 0.324888 
323.081238 1.679924 
323.359039 0.011799 
329.785706 0.011213 
333.039307 0.034632 
333.192719 0.009927 
335.090851 0.112866 
339.717651 0.010559 
345.075287 0.184477 
346.298401 0.016975 
348.062256 1.156823 
351.623474 0.014936 
354.928009 0.01667 
355.763824 0.009138 
356.094513 0.015144 
363.085846 2.181264 
364.089081 0.226583 
367.030579 0.01034 
368.180939 0.016989 
368.199982 0.018169 
369.743622 0.015464 
377.893524 0.015372 
383.648163 0.013712 
385.073486 0.00981 
387.929443 0.01469 
414.123596 0.015922 
420.028534 0.018027 
424.3284 0.018994 
427.190979 0.015288 
430.321289 0.014283 
435.777374 0.014392 
440.955017 0.029783 
447.701172 0.011171 
449.958282 0.013346 
462.389893 0.017307 
464.066345 0.007988 
464.109375 0.010869 
465.018768 0.015371 
490.857605 0.016752 
497.921539 0.009355 
505.767822 0.010052 
513.607605 0.008779 
525.800537 0.020482 
532.342773 0.014921 
534.969727 0.015675 
548.473877 0.014652 
553.397278 0.009854 
558.874084 0.014431 
END IONS

