BEGIN IONS
PEPMASS=103.05
CHARGE=1+
COMPOUNDNAME=CYCLOSERINE
LIBRARYQUALITY=3
SMILES=N/A
INCHIKEY=DYDCUQKUCUHJBH-UWTATZPHSA-N
INCHI=InChI=1S/C3H6N2O2/c4-2-1-7-5-3(2)6/h2H,1,4H2,(H,5,6)/t2-/m1/s1
MSLEVEL=2
SOURCE_INSTRUMENT=N/A-ESI-QFT
FILENAME=library_mgf.mgf
SEQ=*..*
IONMODE=positive
ORGANISM=MONA
NAME=CYCLOSERINE [M+H]+
PI=MoNA
DATACOLLECTOR=MoNA:VF-NPL-QEHF027813
PUBMED=N/A
SUBMITUSER=mwang87
TAGS=
SPECTRUMID=CCMSLIB00004721394
SCANS=27813
50.037865 1.772788 
51.884331 1.138515 
52.305809 1.504046 
52.645363 0.769632 
52.984821 1.628882 
53.035339 0.770368 
53.233509 0.802289 
53.314034 0.789229 
53.682411 1.612328 
54.306999 1.686737 
54.903221 0.856253 
55.291447 0.903374 
55.531502 1.613825 
57.257347 0.728541 
57.259212 1.769002 
57.43618 0.842355 
57.914246 1.730811 
58.028965 62.968071 
58.065365 11.345366 
58.35643 1.053776 
58.650806 1.167283 
58.836891 2.094956 
60.044636 1.85175 
60.080963 17.140833 
62.034111 0.789131 
63.021412 0.753435 
63.395638 1.77303 
64.163826 1.771007 
65.335251 1.061032 
65.744621 1.766116 
65.928741 1.532546 
66.310921 1.789128 
67.874008 1.138826 
68.618256 1.840731 
68.657196 0.738612 
69.296318 0.699362 
70.263138 1.668212 
70.827324 1.127651 
70.863213 1.60259 
70.906532 1.205702 
71.216362 1.85452 
71.780609 1.678541 
72.080704 1.044202 
72.706421 1.488056 
72.720398 1.208872 
74.096405 19.025309 
75.05529 11.205833 
75.695885 1.167588 
76.621834 1.612952 
77.173775 1.230958 
77.563774 1.182666 
78.981506 1.550924 
79.022484 1.736851 
80.066254 1.643999 
81.779541 1.770725 
82.364929 1.35804 
84.165886 1.132547 
85.337524 0.982133 
85.724953 1.625517 
87.350899 1.621199 
87.91581 1.799915 
89.521141 2.14894 
89.658707 1.074893 
90.625633 1.124937 
93.671913 1.978481 
95.461021 1.07084 
100.141083 1.60122 
101.003067 2.785092 
102.054741 1.440576 
102.127716 100.0 
102.214622 1.236864 
103.116951 1.105823 
103.130966 2.624693 
104.106918 5.838261 
106.119102 1.116836 
106.304779 1.430214 
107.771225 1.729887 
108.58239 1.064167 
110.085495 1.745425 
110.283104 1.605431 
110.354507 2.002726 
111.292358 1.144657 
112.183533 1.726524 
118.524452 1.068218 
119.923866 1.68549 
120.887741 1.009739 
121.544785 1.062335 
121.654129 0.820832 
122.697861 0.899968 
END IONS

