BEGIN IONS
PEPMASS=176.0
CHARGE=1+
COMPOUNDNAME=Massbank:KO002530 Citrulline|L-Citrulline|2-Amino-5-ureidovaleric acid
LIBRARYQUALITY=3
SMILES=NC(=O)NCCC[C@H](N)C(O)=O
INCHIKEY=RHGKLRLOHDJJDR-BYPYZUCNSA-N
INCHI=1S/C6H13N3O3/c7-4(5(10)11)2-1-3-9-6(8)12/h4H,1-3,7H2,(H,10,11)(H3,8,9,12)/t4-/m0/s1
MSLEVEL=2
SOURCE_INSTRUMENT=ESI-LC-ESI-QQ
FILENAME=Massbank_ESI_positive_8_1_2014_peaks.mgf
SEQ=*..*
IONMODE=Positive
ORGANISM=MASSBANK
NAME=Massbank:KO002530 Citrulline|L-Citrulline|2-Amino-5-ureidovaleric acid [M+H]+
PI=Putative Massbank Match
DATACOLLECTOR=Massbank
PUBMED=N/A
SUBMITUSER=mwang87
TAGS=
SPECTRUMID=CCMSLIB00000217555
SCANS=8332
43.1 366337.0 
44.7 24752.5 
55.1 59406.0 
57.4 69307.0 
59.3 9901.0 
60.9 173267.5 
67.1 19802.0 
67.9 584159.0 
70.0 32653498.0 
71.1 148515.0 
72.9 64356.5 
83.9 79208.0 
86.2 529703.5 
87.7 19802.0 
91.7 54455.5 
93.3 39604.0 
94.9 34653.5 
96.3 118812.0 
96.5 44554.5 
98.1 74257.5 
98.6 54455.5 
104.8 24752.5 
113.2 559406.5 
113.9 128713.0 
116.9 14851.5 
130.7 54455.5 
134.2 168317.0 
159.5 29703.0 
END IONS

