BEGIN IONS
PEPMASS=425.379
CHARGE=1+
COMPOUNDNAME=3-Epilupeol
LIBRARYQUALITY=3
SMILES=N/A
INCHIKEY=MQYXUWHLBZFQQO-ISZJTHHZSA-N
INCHI=InChI=1S/C30H50O/c1-19(2)20-11-14-27(5)17-18-29(7)21(25(20)27)9-10-23-28(6)15-13-24(31)26(3,4)22(28)12-16-30(23,29)8/h20-25,31H,1,9-18H2,2-8H3/t20-,21+,22-,23+,24+,25+,27+,28-,29+,30+/m0/s1
MSLEVEL=2
SOURCE_INSTRUMENT=N/A-ESI-QFT
FILENAME=library_mgf.mgf
SEQ=*..*
IONMODE=negative
ORGANISM=MONA
NAME=3-Epilupeol [M-H]-
PI=MoNA
DATACOLLECTOR=MoNA:VF-NPL-QEHF005648
PUBMED=N/A
SUBMITUSER=mwang87
TAGS=
SPECTRUMID=CCMSLIB00004696711
SCANS=5648
51.455379 0.054812 
51.461231 0.068357 
51.90173 0.056351 
52.066738 0.066718 
52.335274 0.05356 
52.811481 0.055865 
52.903828 0.057797 
53.391125 0.047115 
53.489227 0.050617 
53.76823 0.046492 
55.017513 0.200238 
56.084175 0.052064 
57.033169 1.038401 
57.256268 0.049713 
58.242023 0.053673 
58.711864 0.056456 
59.012424 12.301249 
59.013863 0.379954 
59.556892 0.044204 
60.015781 0.051178 
60.334023 0.051199 
61.085228 0.048152 
61.978046 0.799113 
61.986931 100.0 
61.996342 0.345964 
62.557526 0.053811 
62.984062 0.053751 
63.826683 0.057663 
63.960999 4.894572 
63.991196 0.423497 
64.615135 0.049465 
64.881645 0.058646 
64.9487 0.059094 
64.969025 0.063711 
65.582619 0.050935 
65.956734 0.114599 
65.996864 0.049186 
67.555275 0.047548 
67.584724 0.051949 
67.680466 0.055947 
68.725014 0.055508 
68.996918 0.072075 
69.033157 1.779108 
69.393364 0.057095 
70.028465 0.064489 
70.175507 0.050484 
70.204407 0.066145 
70.806915 0.058862 
70.865753 0.048373 
71.012405 1.915215 
71.048836 0.424778 
71.295609 0.053742 
72.420624 0.060072 
72.991692 1.595926 
73.028038 0.858772 
74.0233 0.837878 
74.71331 0.053602 
75.007355 1.210557 
76.968681 0.077424 
78.031403 0.052868 
78.957664 0.377353 
78.984535 10.142373 
78.987152 0.069545 
79.9534 0.228018 
79.955971 13.711707 
80.961197 0.080061 
80.963791 10.673781 
80.980286 0.316967 
81.033173 6.963118 
81.951729 0.245644 
82.036629 0.136071 
82.352226 0.056585 
82.959526 1.063973 
83.048828 24.376986 
84.052139 1.031492 
85.028152 0.410636 
86.954002 0.060768 
87.007294 0.712085 
87.043861 0.19266 
87.794724 0.053423 
89.023003 3.208246 
90.780891 0.054269 
91.020493 0.076296 
92.926613 3.292876 
92.99984 0.135963 
93.033211 0.827621 
93.97139 0.068429 
94.923721 0.617654 
94.962578 0.275778 
94.979439 60.57597 
94.996872 0.117497 
95.048782 0.205875 
95.950928 0.135264 
95.978889 0.268104 
95.982857 0.595194 
96.007874 0.054428 
96.94117 0.185671 
96.958717 49.690716 
96.975182 2.984119 
96.983414 0.113043 
97.027916 0.061094 
97.064507 0.835911 
97.50544 0.05161 
97.833878 0.057238 
97.958214 0.650447 
98.954575 3.207488 
98.962959 0.3458 
99.007431 0.893343 
99.043823 0.22801 
99.080154 0.064536 
99.496071 0.059214 
99.924446 3.894917 
100.924561 0.202681 
100.932159 0.252049 
101.023071 0.513907 
101.059509 0.066128 
101.258278 0.057785 
101.652054 0.057263 
101.96228 0.052591 
102.018028 0.048768 
102.054741 0.53024 
103.918968 0.081268 
104.012405 0.053344 
104.034012 0.393017 
105.000061 0.058708 
106.97924 0.068783 
108.870132 0.066401 
109.02816 0.146545 
109.0644 0.224461 
109.674004 0.059794 
110.639282 0.052399 
110.726219 0.050586 
110.974495 0.649589 
111.04393 0.257675 
111.080223 1.813984 
111.89267 0.059008 
113.02314 0.514288 
113.535934 0.04797 
114.023064 0.072899 
115.019531 0.971011 
115.919273 2.112429 
116.455208 0.065264 
116.919807 0.061884 
116.927292 1.236212 
116.971214 0.439638 
117.017998 0.065148 
118.049553 0.171581 
118.108353 0.057699 
118.311798 0.052184 
118.940689 2.570682 
118.968208 0.863712 
119.015739 1.838133 
119.033478 0.288476 
119.04895 0.406357 
119.945686 4.891533 
120.087769 0.061196 
120.738251 0.056614 
121.028221 13.284235 
121.94278 0.843275 
122.325745 0.052549 
122.974533 0.822137 
123.080444 0.258723 
124.706879 0.051972 
124.858009 0.050068 
125.023178 0.084625 
125.059853 0.139628 
125.095932 1.614179 
125.717278 0.062798 
125.87207 0.124679 
127.86895 0.068803 
128.033951 0.450691 
128.246185 0.058833 
129.332108 0.06248 
130.942993 0.188013 
131.403839 0.059519 
131.460663 0.048626 
132.029129 0.05549 
132.63353 0.057218 
132.7715 0.057621 
132.99501 0.208443 
133.064636 0.139715 
134.396759 0.056043 
135.04393 0.252429 
135.080597 0.116807 
137.023178 0.057887 
137.059616 0.064997 
137.096344 0.065209 
138.999786 0.052045 
139.039398 0.073504 
139.074844 0.123176 
139.111877 0.140167 
141.015747 0.118498 
141.518295 0.058276 
141.867035 0.260023 
145.049423 0.062878 
146.964813 0.635646 
149.008575 0.269342 
149.023712 0.1873 
149.059494 0.651292 
149.19928 0.059007 
150.987732 9.176117 
151.987045 0.330467 
152.274033 0.056236 
152.938309 0.383701 
152.967041 1.132816 
154.94606 0.069275 
156.894119 0.184607 
157.031586 0.656034 
157.122177 0.21673 
158.892227 0.145919 
159.877609 0.136404 
159.892868 0.466606 
160.841064 1.008292 
160.891525 0.176457 
161.023102 0.068038 
161.768341 0.059767 
161.835556 0.063536 
162.838211 0.431066 
162.892914 0.070778 
163.396729 0.057649 
163.839386 0.169579 
164.836273 0.081796 
164.967361 0.109567 
165.039429 0.052981 
165.133163 0.062353 
165.639923 0.054015 
165.835953 0.147599 
167.018982 0.070278 
167.032272 0.154714 
168.998322 4.706557 
170.003311 0.077144 
170.977661 0.062975 
170.99585 0.106112 
171.1017 1.153119 
171.982544 0.224308 
173.044113 0.139666 
174.987961 0.077301 
175.042175 7.426707 
176.042343 0.069869 
176.899643 0.792892 
176.928329 0.059847 
177.712769 0.067211 
178.8965 0.401792 
179.957382 0.624044 
180.032684 0.46012 
180.841049 0.065344 
183.0112 10.160189 
183.715607 0.055104 
183.745224 0.055546 
184.000885 2.771171 
184.018845 0.629827 
184.027298 0.143067 
184.50351 0.321079 
185.007233 0.070361 
185.118011 0.052608 
187.132904 0.306314 
188.85556 0.72398 
189.853271 1.808191 
190.851562 0.303177 
191.107483 0.070908 
191.929047 0.066574 
193.051956 0.163424 
195.487778 0.080761 
195.562454 0.059859 
197.027206 0.726898 
198.035004 0.090329 
199.169464 0.580982 
199.304138 0.056007 
200.944244 0.304506 
203.706421 0.061637 
203.918823 0.2155 
205.676361 0.055903 
205.892944 1.690918 
207.011871 0.617739 
209.078995 0.27488 
212.048599 0.124434 
212.951141 0.063427 
213.837341 0.276478 
213.849319 2.560581 
215.050064 0.053277 
216.009979 0.064692 
217.612259 0.050238 
218.974869 0.119889 
219.138565 0.052175 
220.916519 0.737911 
221.084549 3.346552 
222.087189 0.058205 
223.02713 0.072419 
225.006927 1.135266 
226.84227 0.054528 
227.071762 0.082607 
227.20108 0.35475 
235.009659 0.062416 
237.940262 0.053122 
239.0737 0.071271 
240.974106 0.05959 
244.843826 0.055729 
247.83902 0.165337 
248.079407 1.286019 
249.061615 0.154567 
250.947189 0.170645 
253.002258 0.900149 
254.863571 0.105833 
255.087173 0.312462 
255.158997 0.116219 
255.232635 39.716274 
255.304596 0.122995 
256.236023 5.773231 
257.237946 0.074377 
259.060944 0.268676 
260.872925 2.209902 
260.968933 0.076652 
261.890228 0.067877 
262.868164 0.059829 
263.870514 0.060915 
265.147156 0.082728 
267.071014 0.056761 
269.1539 0.06779 
271.171234 0.053084 
271.292755 0.072714 
274.880707 1.723256 
274.895966 0.056102 
275.880524 0.372655 
276.878204 0.352619 
276.927795 0.065733 
277.171417 0.058022 
278.944489 0.947887 
279.056244 0.070435 
281.248444 0.715508 
282.251434 0.169065 
282.994751 2.342929 
283.263977 24.614176 
283.539368 0.061367 
284.267487 4.454037 
284.975525 0.07331 
287.056274 0.201171 
289.437927 0.059362 
296.911072 0.239812 
296.954163 0.058433 
297.152527 1.177916 
298.157135 0.06575 
298.907593 0.082148 
299.026367 1.699251 
301.005341 0.161439 
306.943268 0.307932 
307.194458 1.451112 
307.867432 0.077132 
308.19635 0.068893 
308.951019 2.94922 
309.029053 0.447941 
309.152557 1.644831 
309.172699 0.085272 
311.168579 4.081776 
311.669128 0.064543 
312.172028 1.875156 
313.16391 0.067387 
320.265076 0.054668 
321.097321 0.059424 
321.962494 0.080453 
323.168365 0.477319 
325.184143 35.634026 
326.187683 4.351233 
327.179413 0.494223 
337.216583 0.085442 
339.199646 69.418381 
340.202789 16.180449 
341.196106 2.479211 
342.200409 1.028175 
342.624664 0.06337 
344.942566 0.061442 
347.074738 1.746014 
349.899445 0.273402 
350.896881 0.136875 
351.232147 0.171651 
353.249146 0.201785 
355.263489 0.148408 
356.941864 0.086426 
357.014343 0.60178 
358.992615 0.090246 
361.147186 0.373155 
363.100891 0.066898 
363.362305 0.192511 
365.285553 0.201035 
367.231598 0.450138 
367.35675 0.212394 
368.235687 0.101161 
369.242584 0.791622 
370.868317 1.598868 
371.260498 0.062005 
371.869995 0.147359 
378.830933 0.066539 
379.394196 1.030713 
381.11261 0.350123 
381.31662 0.297661 
383.260773 0.056943 
383.296295 0.083639 
391.031677 0.056006 
393.503876 0.058462 
395.220306 0.064938 
399.283051 0.058731 
407.887543 0.479577 
408.865021 0.556381 
408.890259 0.097777 
410.845306 0.638938 
420.702728 0.056499 
423.420349 0.69599 
424.297302 0.59552 
424.329315 0.071822 
424.391907 0.052772 
424.424561 1.173151 
425.257233 6.660894 
425.30603 1.875856 
425.340942 0.907027 
425.400787 0.096499 
426.262939 1.51852 
426.309357 0.235716 
426.341278 0.063407 
427.030914 1.106383 
427.285187 2.744376 
427.321442 1.579388 
427.3573 0.874835 
453.94278 0.058211 
END IONS

