BEGIN IONS
PEPMASS=271.061
CHARGE=1+
COMPOUNDNAME=naringenin
LIBRARYQUALITY=3
SMILES=N/A
INCHIKEY=FTVWIRXFELQLPI-UHFFFAOYSA-N
INCHI=InChI=1S/C15H12O5/c16-9-3-1-8(2-4-9)13-7-12(19)15-11(18)5-10(17)6-14(15)20-13/h1-6,13,16-18H,7H2
MSLEVEL=2
SOURCE_INSTRUMENT=N/A-ESI-QTOF
FILENAME=library_mgf.mgf
SEQ=*..*
IONMODE=negative
ORGANISM=MONA
NAME=naringenin [M-H]-
PI=MoNA
DATACOLLECTOR=MoNA:VF-NPL-QTOF000577
PUBMED=N/A
SUBMITUSER=mwang87
TAGS=
SPECTRUMID=CCMSLIB00004718124
SCANS=574
39.015301 0.907535 
39.0177 1.224704 
40.9958 6.656826 
41.013699 0.443126 
41.0215 0.254272 
51.018501 0.283199 
63.014999 28.916895 
63.058998 0.263173 
63.064999 0.515425 
63.073601 0.321517 
63.078201 0.336792 
63.085602 0.294323 
63.088799 0.311106 
63.111801 0.286765 
63.122898 0.262489 
64.9944 43.087391 
65.040398 0.269269 
65.049202 0.526858 
65.059502 0.263185 
65.063599 0.45207 
65.067398 0.632006 
65.084297 0.841748 
65.1082 0.312977 
65.126404 0.428275 
65.144699 0.32108 
65.1604 0.287169 
65.9944 0.383523 
67.004402 0.252652 
68.986504 0.663282 
68.988701 0.971784 
79.010902 0.270369 
80.012001 0.265493 
81.023003 0.290687 
83.003899 14.052456 
83.072197 0.283503 
83.0868 0.390321 
88.991699 0.290197 
89.028397 0.49852 
91.042397 0.571022 
91.0467 0.339207 
91.975098 0.375648 
93.024498 12.349887 
93.112099 0.337862 
93.1548 0.250977 
95.003197 0.599601 
107.003403 11.429036 
107.058601 0.782882 
108.007202 0.674054 
109.016502 0.650821 
115.042702 0.407238 
116.0158 0.285019 
117.021797 4.636721 
119.038803 100.0 
119.115097 0.802481 
119.123299 0.440535 
119.133202 2.618665 
119.168098 0.425221 
119.174202 0.824055 
119.187202 0.437147 
119.195503 0.284388 
119.203796 0.517244 
119.2267 0.503251 
119.233101 0.327243 
119.240601 0.348414 
119.254799 0.33385 
119.267502 0.381776 
119.304001 0.320545 
119.314697 0.575681 
119.377197 0.436319 
119.391098 0.345819 
119.431602 0.252699 
119.456902 0.320852 
119.466499 0.345068 
119.517403 0.416372 
119.554199 0.369176 
119.669701 0.250925 
119.7062 0.253364 
120.036598 0.48599 
120.046799 0.580727 
120.071404 0.266782 
121.014999 0.813052 
123.000397 0.344961 
133.019501 0.44502 
133.027298 0.291594 
137.016296 0.250915 
143.037094 2.117386 
145.015793 1.720653 
150.9897 2.377106 
150.998093 0.92028 
156.038193 0.404612 
157.045807 0.309733 
159.042694 0.259256 
161.049805 0.757939 
165.009705 0.318458 
177.004898 0.630371 
183.032196 0.428229 
185.053299 0.304813 
187.025604 2.185414 
END IONS

