BEGIN IONS
PEPMASS=266.139
CHARGE=1+
COMPOUNDNAME=ANISOMYCIN
LIBRARYQUALITY=3
SMILES=N/A
INCHIKEY=YKJYKKNCCRKFSL-BFHYXJOUSA-N
INCHI=InChI=1S/C14H19NO4/c1-9(16)19-14-12(15-8-13(14)17)7-10-3-5-11(18-2)6-4-10/h3-6,12-15,17H,7-8H2,1-2H3/t12-,13+,14+/m0/s1
MSLEVEL=2
SOURCE_INSTRUMENT=N/A-ESI-QFT
FILENAME=library_mgf.mgf
SEQ=*..*
IONMODE=positive
ORGANISM=MONA
NAME=ANISOMYCIN [M+H]+
PI=MoNA
DATACOLLECTOR=MoNA:VF-NPL-QEHF027591
PUBMED=N/A
SUBMITUSER=mwang87
TAGS=
SPECTRUMID=CCMSLIB00004721172
SCANS=27591
50.020561 0.019483 
50.619446 0.022358 
51.034245 0.018493 
51.317501 0.015166 
52.441986 0.017186 
52.771957 0.020601 
53.038933 0.49883 
54.007259 0.018528 
54.503998 0.019036 
55.018196 0.176374 
55.054291 0.013558 
55.350243 0.018097 
55.525513 0.019408 
56.016071 0.020874 
56.049801 0.79226 
56.643402 0.018993 
56.736641 0.014899 
57.099751 0.022582 
57.219398 0.019495 
57.584183 0.020137 
57.844097 0.018221 
58.30098 0.018652 
58.723408 0.018288 
58.727833 0.020685 
58.870369 0.014949 
58.980042 0.021101 
59.840389 0.01609 
60.044662 4.53221 
60.224976 0.016999 
60.229179 0.018585 
61.225315 0.155306 
61.226799 0.124407 
61.228848 0.038562 
63.57938 0.02291 
63.99551 0.017702 
64.393089 0.019789 
64.841476 0.018148 
65.038925 0.021767 
65.13018 0.018123 
65.749794 0.01783 
67.041756 0.028328 
68.04966 0.200478 
69.532608 0.021901 
69.861023 0.021595 
70.065239 1.691821 
72.044495 0.206908 
72.096222 0.01558 
72.735451 0.018961 
72.868904 0.018121 
73.316742 0.02114 
73.705933 0.019857 
73.910919 0.017624 
74.638435 0.020168 
75.114388 0.021754 
75.776901 0.018235 
75.807877 0.015376 
76.48307 0.018198 
76.831261 0.019797 
76.947678 0.018838 
77.038681 0.401698 
77.717819 0.021338 
78.046539 0.635358 
78.13623 0.019495 
78.737915 0.020499 
78.761024 0.019755 
79.028236 0.019831 
79.054268 0.075587 
79.058815 0.019853 
79.547966 0.018257 
80.049538 0.407022 
80.589432 0.014424 
81.033669 0.061697 
82.103485 0.01668 
82.918716 0.021883 
82.980759 0.020362 
83.088135 0.016326 
83.110611 0.020314 
84.044502 0.812402 
84.128891 0.021405 
84.916702 0.022544 
85.546585 0.019969 
86.484322 0.01975 
86.858475 0.014859 
86.869644 0.022338 
88.671005 0.018464 
88.77327 0.0198 
89.114655 0.019703 
89.657608 0.025023 
90.404404 0.017602 
90.617249 0.017725 
91.054314 6.035013 
91.259338 0.019078 
92.057602 0.307352 
92.458649 0.022967 
93.070099 0.29704 
94.101143 0.013646 
94.896812 0.018959 
94.980995 0.01902 
95.049263 1.092941 
95.244026 0.02218 
96.052795 0.021128 
96.080963 0.021383 
96.795349 0.016319 
97.169052 0.023473 
98.060158 0.474033 
99.063934 0.020769 
99.06768 0.018408 
99.09613 0.020107 
99.3265 0.018604 
100.397675 0.022176 
100.675102 0.020471 
102.046478 0.020088 
103.05426 0.117875 
103.156219 0.020252 
103.434288 0.018196 
105.033546 0.021476 
105.044853 0.465758 
105.070045 0.359479 
106.041519 0.181307 
107.049248 0.505596 
108.91436 0.01821 
109.064842 0.137508 
109.109863 0.020326 
110.617714 0.018189 
111.606277 0.020364 
112.821014 0.015005 
115.054428 0.615402 
115.347374 0.020208 
116.06221 0.049539 
117.057625 0.02393 
117.070038 0.437492 
117.169853 0.017926 
118.065231 0.490934 
119.049278 0.127467 
119.060791 0.026723 
119.073463 0.024413 
119.085457 0.04541 
119.123306 0.016499 
121.064896 100.0 
121.146515 0.015472 
121.173164 0.020184 
122.068184 7.652998 
122.8246 0.020254 
124.233452 0.017681 
127.784218 0.018898 
128.062119 0.363347 
129.06987 0.220939 
130.041428 0.203707 
130.065186 0.207726 
130.393814 0.021602 
131.048965 0.070869 
131.073059 0.626275 
131.497452 0.020432 
132.044464 0.161557 
132.057098 0.384785 
133.064728 0.308248 
134.060089 0.366672 
135.067978 0.021109 
135.08046 0.558483 
135.113235 0.018156 
137.299866 0.01565 
138.544785 0.018113 
141.069885 0.057093 
144.057114 4.059222 
145.065109 3.099412 
145.088684 0.339697 
146.060791 0.023062 
146.067459 0.029129 
146.07309 0.233267 
147.068008 0.915642 
147.08049 1.791186 
148.076019 0.141002 
148.084 0.020635 
149.083969 0.120892 
149.096191 0.274371 
150.091583 0.376215 
155.060501 0.23786 
156.057114 0.024511 
156.081238 0.221875 
157.088699 0.293146 
158.060211 0.238053 
159.080505 1.616678 
159.74054 0.019692 
160.075821 0.339419 
161.096207 0.543759 
161.545227 0.019929 
162.091415 0.500591 
162.975525 0.023719 
163.09935 0.175211 
163.752487 0.0178 
171.080582 0.831969 
172.075867 0.105548 
173.083618 1.342953 
174.068176 0.02259 
176.14444 0.022153 
181.137817 0.021146 
186.091415 0.105812 
187.073303 0.022481 
188.107117 0.464 
191.094269 0.029608 
206.117889 0.618673 
207.456772 0.017756 
208.712021 0.020949 
211.662277 0.017145 
219.797943 0.171161 
221.410278 0.019538 
223.510605 0.020209 
224.26973 0.020988 
228.625748 0.018273 
239.755081 0.0217 
247.84111 0.020467 
249.834732 0.016835 
249.926224 0.015541 
254.454605 0.022359 
256.598755 0.021073 
269.788208 0.015823 
271.59729 0.016579 
274.636536 0.020816 
275.00647 0.019311 
277.289795 0.020952 
283.449066 0.022299 
287.429657 0.019376 
END IONS

