BEGIN IONS
PEPMASS=308.0
CHARGE=1+
COMPOUNDNAME=Massbank:KO003607 Neomycin|Fradiomycin B|Streptothricin B|Neomycin B
LIBRARYQUALITY=3
SMILES=NC[C@H](O1)[C@@H](O)[C@H](O)[C@@H](N)[C@H]1O[C@H]([C@@H](CO)4)[C@@H](O)[C@@H](O4)O[C@H]([C@@H](O)3)[C@@H]([C@@H](N)C[C@@H](N)3)O[C@@H](O2)[C@H](N)[C@@H](O)[C@H](O)[C@@H](CN)2
INCHIKEY=PGBHMTALBVVCIT-VCIWKGPPSA-N
INCHI=1S/C23H46N6O13/c24-2-7-13(32)15(34)10(28)21(37-7)40-18-6(27)1-5(26)12(31)20(18)42-23-17(36)19(9(4-30)39-23)41-22-11(29)16(35)14(33)8(3-25)38-22/h5-23,30-36H,1-4,24-29H2
MSLEVEL=2
SOURCE_INSTRUMENT=ESI-LC-ESI-QQ
FILENAME=Massbank_ESI_positive_8_1_2014_peaks.mgf
SEQ=*..*
IONMODE=Positive
ORGANISM=MASSBANK
NAME=Massbank:KO003607 Neomycin|Fradiomycin B|Streptothricin B|Neomycin B [M+2H]++
PI=Putative Massbank Match
DATACOLLECTOR=Massbank
PUBMED=N/A
SUBMITUSER=mwang87
TAGS=
SPECTRUMID=CCMSLIB00000219744
SCANS=9409
72.9 29703.0 
73.8 19802.0 
78.1 29703.0 
80.3 133663.5 
82.1 178218.0 
84.1 39604.0 
84.8 29703.0 
95.8 59406.0 
97.3 24752.5 
98.1 193069.5 
100.9 39604.0 
110.2 94059.5 
114.2 772278.0 
121.0 113861.5 
125.1 301980.5 
126.0 113861.5 
128.0 39604.0 
129.2 29703.0 
131.9 29703.0 
134.1 435644.0 
136.0 94059.5 
138.0 1168318.0 
143.1 732674.0 
144.2 49505.0 
146.3 128713.0 
151.9 34653.5 
161.2 5381193.5 
161.7 49505.0 
162.9 193069.5 
164.9 19802.0 
168.6 9901.0 
170.9 94059.5 
173.1 123762.5 
175.1 44554.5 
179.5 74257.5 
187.1 252475.5 
188.1 222772.5 
190.2 64356.5 
193.3 2113863.5 
201.6 59406.0 
203.3 64356.5 
207.9 24752.5 
210.0 128713.0 
211.1 212871.5 
211.7 39604.0 
216.4 44554.5 
231.4 34653.5 
232.2 19802.0 
244.3 34653.5 
248.4 430693.5 
258.4 49505.0 
259.3 44554.5 
273.2 178218.0 
276.2 94059.5 
276.5 153465.5 
277.5 49505.0 
291.3 950496.0 
293.5 628713.5 
295.6 430693.5 
300.1 79208.0 
308.5 43806974.5 
420.2 74257.5 
438.6 89109.0 
455.4 6579214.5 
END IONS

