BEGIN IONS
TITLE=Scan Number: 955
PEPMASS=403.241
CHARGE=1+
COMPOUNDNAME=Ambiguine I isonitrile
LIBRARYQUALITY=3
SMILES=C[C@@]1(CC[C@H]2[C@@]3([C@@]1([C@@H]4[C@@H](O4)C(c5c3c6c(cccc6[nH]5)C2(C)C)(C)C)[N+]#[C-])O)C=C
INCHIKEY=RVIIZRJMWFSNER-LJCLWVHTSA-N
INCHI=
MSLEVEL=2
SOURCE_INSTRUMENT=LC-ESI-qTof
FILENAME=f.philipwi/0_WilliamsFreshwaterCyanosStandardsConvertedTo_mzXML_v2/PW-44_conc_P2-B-5_Ambiguine_I_isonitrile_402amu_Scan950_981_01_15670.mzXML;
SEQ=*..*
NOTES=
IONMODE=Positive
ORGANISM=GNPS-LIBRARY
NAME=Ambiguine I isonitrile M+H
SPECTRUMID=CCMSLIB00000424905
ACTIVATION=CID
INSTRUMENT=ion trap
SCANS=955
53.724781 36.0 
57.377888 36.0 
62.413769 104.0 
88.855087 44.0 
107.049202 48.0 
112.404022 40.0 
113.698563 84.0 
116.784721 152.0 
117.619751 44.0 
120.702286 72.0 
123.782143 68.0 
141.024765 72.0 
144.07666 268.0 
145.088409 108.0 
146.211609 52.0 
148.401093 76.0 
153.081131 72.0 
154.218964 32.0 
156.084869 108.0 
157.305725 100.0 
158.932907 128.0 
159.103622 84.0 
159.431534 44.0 
160.084167 144.0 
161.498703 84.0 
163.090378 164.0 
166.075256 136.0 
167.082504 144.0 
168.085022 332.0 
169.087204 236.0 
169.96698 120.0 
171.098465 92.0 
171.833633 72.0 
172.106674 248.0 
172.452545 56.0 
174.475876 88.0 
175.234497 88.0 
176.028595 172.0 
176.451721 92.0 
177.358917 112.0 
178.077072 96.0 
179.092224 84.0 
179.855011 80.0 
180.075928 96.0 
181.087067 360.0 
181.946976 28.0 
182.094223 800.0 
182.557983 48.0 
183.100998 72.0 
183.359848 84.0 
184.105606 112.0 
184.362503 68.0 
185.104614 104.0 
185.194351 32.0 
185.281113 80.0 
186.117432 72.0 
186.297684 104.0 
186.970993 76.0 
187.101273 148.0 
189.390442 92.0 
189.697601 36.0 
191.071762 196.0 
192.078308 288.0 
192.91571 92.0 
193.092819 172.0 
194.097748 1304.0 
194.253967 36.0 
195.028671 28.0 
195.102509 976.0 
196.108795 892.0 
196.382523 44.0 
196.47348 64.0 
197.109222 180.0 
197.242661 28.0 
198.122925 524.0 
198.75853 40.0 
198.938309 28.0 
199.064209 88.0 
199.136169 72.0 
199.631226 36.0 
200.700333 48.0 
200.99353 32.0 
201.114395 136.0 
201.843933 84.0 
202.932159 28.0 
203.032059 48.0 
203.468277 56.0 
204.08017 736.0 
204.487946 76.0 
205.085434 568.0 
205.345688 28.0 
205.455322 56.0 
206.091248 928.0 
206.186935 48.0 
206.272995 40.0 
206.6082 36.0 
206.901505 48.0 
207.104721 740.0 
207.213379 40.0 
207.323502 52.0 
207.424484 36.0 
207.580582 64.0 
207.897919 52.0 
207.975693 64.0 
208.108948 2668.0 
208.237762 48.0 
208.479095 44.0 
208.794662 32.0 
209.116165 980.0 
209.310791 80.0 
209.421478 44.0 
209.652161 40.0 
209.956863 28.0 
210.094711 892.0 
210.224808 32.0 
210.363464 32.0 
210.600357 52.0 
210.705688 48.0 
211.114105 208.0 
211.678375 76.0 
211.975266 36.0 
212.107452 360.0 
212.597534 24.0 
213.124542 60.0 
213.630478 92.0 
214.068604 100.0 
214.451157 48.0 
214.678757 40.0 
215.105103 48.0 
216.069138 236.0 
216.519135 40.0 
217.088486 476.0 
217.15744 48.0 
217.505142 84.0 
217.62738 40.0 
217.743057 80.0 
217.824905 144.0 
218.09552 1872.0 
218.323807 40.0 
218.502808 56.0 
218.932541 96.0 
219.103241 2784.0 
219.710571 76.0 
220.10405 2124.0 
220.2211 84.0 
220.353561 36.0 
220.438721 32.0 
220.694336 36.0 
220.845886 36.0 
221.112137 1244.0 
221.305557 40.0 
221.419098 68.0 
221.908142 40.0 
222.122452 4564.0 
222.31665 36.0 
222.447021 84.0 
222.581802 36.0 
222.811157 32.0 
222.882523 64.0 
223.012283 52.0 
223.130081 2344.0 
223.600739 44.0 
223.868591 120.0 
224.134491 2480.0 
224.309448 40.0 
224.422119 40.0 
224.536728 108.0 
224.832932 36.0 
225.033707 68.0 
225.123154 196.0 
225.282394 28.0 
225.383347 80.0 
225.550369 36.0 
225.812408 44.0 
225.971802 72.0 
226.120255 472.0 
226.431992 100.0 
227.079163 152.0 
227.153412 80.0 
228.086761 132.0 
228.624268 44.0 
228.768875 36.0 
228.923157 104.0 
229.086594 180.0 
229.222244 32.0 
229.405655 88.0 
230.101974 316.0 
230.362488 36.0 
230.633469 76.0 
231.101913 744.0 
231.780121 40.0 
231.960663 40.0 
231.991837 36.0 
232.109619 3548.0 
232.233551 48.0 
232.359848 32.0 
232.464813 40.0 
232.670898 44.0 
232.748688 48.0 
232.826492 32.0 
232.944321 36.0 
233.117981 4732.0 
233.315247 36.0 
233.517593 44.0 
233.615021 48.0 
233.687668 44.0 
233.790436 40.0 
233.939911 96.0 
234.122284 11236.0 
234.361877 76.0 
234.452408 56.0 
234.623215 168.0 
234.767746 60.0 
234.937683 96.0 
235.001556 44.0 
235.12352 4424.0 
235.304764 128.0 
235.398148 72.0 
235.606842 64.0 
235.678787 44.0 
235.83905 44.0 
235.860077 32.0 
235.901443 40.0 
236.133469 2404.0 
236.326111 44.0 
236.515533 164.0 
236.58876 32.0 
236.783386 84.0 
236.850723 100.0 
237.132782 664.0 
237.292786 68.0 
237.386292 48.0 
237.503418 36.0 
237.607117 32.0 
237.71521 28.0 
237.831207 40.0 
237.906891 40.0 
237.947861 36.0 
237.975113 64.0 
238.126114 1740.0 
238.334793 32.0 
238.679352 32.0 
238.869461 40.0 
238.984741 56.0 
239.142075 216.0 
239.439362 36.0 
239.714523 64.0 
239.786987 100.0 
239.911957 36.0 
240.13356 480.0 
240.318466 44.0 
240.781616 48.0 
241.131561 240.0 
241.261414 60.0 
241.533951 32.0 
241.781677 40.0 
242.10321 512.0 
242.446228 36.0 
242.853348 56.0 
243.102325 428.0 
243.191223 28.0 
243.768127 36.0 
244.109116 1596.0 
244.266006 40.0 
244.894058 44.0 
244.967636 64.0 
245.117706 1140.0 
245.273285 40.0 
245.42305 32.0 
245.702744 44.0 
245.912628 40.0 
246.124741 3880.0 
246.360428 36.0 
246.702957 40.0 
246.878525 152.0 
246.990387 40.0 
247.130875 2396.0 
247.384262 36.0 
247.494568 36.0 
247.614914 36.0 
247.755371 24.0 
247.885818 44.0 
248.139389 12480.0 
248.266098 108.0 
248.425766 52.0 
248.533585 44.0 
248.629059 36.0 
248.739639 100.0 
248.920639 36.0 
249.147797 6888.0 
249.380707 116.0 
249.508698 64.0 
249.766159 24.0 
249.898254 52.0 
250.149338 5788.0 
250.337692 40.0 
250.460754 40.0 
250.547516 36.0 
250.698044 64.0 
250.863678 40.0 
250.990509 52.0 
251.142517 556.0 
251.330109 40.0 
251.421066 36.0 
251.526321 40.0 
251.764847 40.0 
252.139297 9228.0 
252.277267 44.0 
252.382202 32.0 
252.463226 36.0 
252.625305 80.0 
252.816162 48.0 
252.893082 76.0 
253.139694 1724.0 
253.370285 76.0 
253.484985 36.0 
253.541672 44.0 
253.710571 28.0 
253.93399 24.0 
254.141037 336.0 
254.248993 40.0 
254.401474 40.0 
254.472656 48.0 
254.564178 40.0 
254.726929 48.0 
254.981339 56.0 
255.108231 532.0 
255.286804 60.0 
255.368286 44.0 
255.531296 120.0 
255.612823 44.0 
256.116486 1316.0 
256.335907 40.0 
256.490051 48.0 
256.722351 32.0 
256.973236 52.0 
257.122253 760.0 
257.65094 48.0 
257.740753 44.0 
257.840332 44.0 
258.013062 80.0 
258.126099 3736.0 
258.223114 76.0 
258.424377 136.0 
258.679413 36.0 
258.812714 24.0 
258.988373 32.0 
259.024872 76.0 
259.130859 2052.0 
259.500244 44.0 
259.705658 36.0 
259.790161 36.0 
259.889679 44.0 
260.003662 56.0 
260.140594 6020.0 
260.272003 40.0 
260.449829 44.0 
260.589874 44.0 
260.667053 36.0 
260.738251 28.0 
260.893524 88.0 
261.138885 2884.0 
261.373077 152.0 
261.524445 72.0 
261.795227 60.0 
261.935883 44.0 
262.131958 5288.0 
262.366241 36.0 
262.530426 52.0 
262.641663 96.0 
262.722717 52.0 
262.910309 72.0 
262.998199 32.0 
263.135864 2160.0 
263.479095 36.0 
263.742584 52.0 
263.851746 36.0 
264.164124 4552.0 
264.332092 96.0 
264.421539 48.0 
264.567169 52.0 
264.664948 92.0 
264.742981 72.0 
264.85434 76.0 
265.140961 1480.0 
265.365631 64.0 
265.534668 44.0 
265.712585 40.0 
265.820679 40.0 
266.009857 48.0 
266.151184 2232.0 
266.290649 48.0 
266.415466 56.0 
266.519531 44.0 
266.62793 96.0 
266.716003 64.0 
266.831818 36.0 
266.998444 36.0 
267.157471 720.0 
267.251862 112.0 
267.342285 24.0 
267.613342 116.0 
267.832367 28.0 
267.918579 92.0 
268.134308 980.0 
268.333374 96.0 
268.514069 132.0 
269.012512 32.0 
269.117554 504.0 
269.273956 40.0 
269.368103 72.0 
269.860046 36.0 
269.93338 72.0 
270.128113 1152.0 
270.415344 32.0 
270.782349 44.0 
271.134369 1132.0 
271.261444 136.0 
271.706207 56.0 
271.892212 44.0 
272.025726 44.0 
272.142059 5296.0 
272.305481 64.0 
272.427429 56.0 
272.666107 44.0 
272.852722 48.0 
272.926453 40.0 
273.009949 56.0 
273.147797 2460.0 
273.28653 44.0 
273.368134 52.0 
273.65094 48.0 
273.732086 60.0 
273.923645 92.0 
274.151703 3652.0 
274.318298 96.0 
274.571747 24.0 
274.717529 40.0 
274.846436 32.0 
274.948608 48.0 
275.142181 1492.0 
275.269318 44.0 
275.702423 60.0 
276.048615 68.0 
276.144775 2548.0 
276.49054 188.0 
276.705322 40.0 
276.785645 96.0 
276.909882 100.0 
276.977234 144.0 
277.146973 26260.0 
277.351715 108.0 
277.482147 84.0 
277.511078 88.0 
277.606293 32.0 
277.632843 36.0 
277.710571 76.0 
277.74173 52.0 
277.86142 80.0 
277.98053 72.0 
278.152802 26132.0 
278.360901 44.0 
278.461243 44.0 
278.645264 104.0 
278.737976 152.0 
278.81308 68.0 
278.941864 40.0 
279.156586 4508.0 
279.295532 104.0 
279.421875 52.0 
279.658936 124.0 
279.809601 108.0 
279.884247 116.0 
280.012665 180.0 
280.133087 35040.0 
280.373016 100.0 
280.394867 96.0 
280.495117 124.0 
280.599976 72.0 
280.616577 120.0 
280.817719 56.0 
280.949921 32.0 
281.137421 5268.0 
281.334686 120.0 
281.514954 52.0 
281.708252 40.0 
281.844147 32.0 
281.996368 36.0 
282.137024 752.0 
282.293793 48.0 
282.508759 60.0 
282.73587 80.0 
282.891998 68.0 
283.002899 56.0 
283.137177 536.0 
283.537537 32.0 
283.659332 68.0 
283.902618 36.0 
283.999298 40.0 
284.141754 1064.0 
284.245331 40.0 
284.353882 20.0 
284.466766 40.0 
284.497253 48.0 
284.601196 36.0 
284.740997 24.0 
284.923889 36.0 
285.009979 44.0 
285.14917 1504.0 
285.419067 40.0 
285.494446 32.0 
285.602173 32.0 
285.688354 36.0 
285.900757 124.0 
286.152985 3588.0 
286.335175 44.0 
286.410706 48.0 
286.518585 96.0 
286.691254 40.0 
286.827148 68.0 
286.904236 76.0 
287.005554 36.0 
287.160309 2928.0 
287.479706 60.0 
287.631042 36.0 
287.757812 44.0 
287.79187 32.0 
287.824585 40.0 
288.023621 40.0 
288.152344 2552.0 
288.509796 36.0 
288.638214 140.0 
288.740906 64.0 
288.947876 24.0 
289.147522 796.0 
289.341705 48.0 
289.417603 48.0 
289.515228 28.0 
289.595215 80.0 
289.786438 52.0 
289.87326 56.0 
290.007843 40.0 
290.157318 7856.0 
290.325623 36.0 
290.481354 40.0 
290.511871 84.0 
290.618408 76.0 
290.696686 44.0 
290.875977 64.0 
290.91391 52.0 
290.943634 112.0 
291.15625 1352.0 
291.525269 64.0 
291.644989 40.0 
291.721191 36.0 
291.797424 32.0 
291.906311 44.0 
292.160431 2028.0 
292.358459 32.0 
292.462036 36.0 
292.650757 52.0 
292.815125 64.0 
292.933472 168.0 
293.151978 568.0 
293.321442 36.0 
293.48764 40.0 
293.67334 32.0 
293.755981 52.0 
293.924622 36.0 
294.021545 60.0 
294.148407 2724.0 
294.2854 48.0 
294.38382 52.0 
294.635406 32.0 
294.841339 44.0 
294.925995 80.0 
295.018494 44.0 
295.155029 2584.0 
295.242401 72.0 
295.441803 40.0 
295.610046 28.0 
295.818329 32.0 
296.026672 68.0 
296.155365 1024.0 
296.333832 44.0 
296.421631 32.0 
296.630188 28.0 
296.847961 24.0 
297.150421 680.0 
297.333252 40.0 
297.784088 40.0 
297.917297 36.0 
298.155609 844.0 
298.279297 24.0 
298.554596 32.0 
298.741852 116.0 
298.951233 36.0 
299.158447 1116.0 
299.406219 60.0 
299.491547 36.0 
299.610138 48.0 
299.822571 24.0 
300.028656 56.0 
300.170502 4824.0 
300.341583 40.0 
300.429962 76.0 
300.657288 28.0 
300.83313 92.0 
300.956604 56.0 
301.160461 952.0 
301.542908 44.0 
301.735138 44.0 
301.892639 36.0 
302.159851 2536.0 
302.620026 28.0 
302.776886 32.0 
302.895081 128.0 
302.987671 48.0 
303.1604 2692.0 
303.353943 32.0 
303.44278 36.0 
303.609344 28.0 
303.712097 48.0 
303.875977 44.0 
304.168793 3584.0 
304.433929 64.0 
304.54306 36.0 
304.662872 52.0 
304.908661 28.0 
305.037872 104.0 
305.170959 344.0 
305.489349 104.0 
305.801392 44.0 
305.935181 56.0 
306.167297 752.0 
306.307953 88.0 
306.528015 28.0 
306.961823 44.0 
307.159912 1112.0 
307.408325 184.0 
307.509308 44.0 
307.696869 72.0 
307.753052 92.0 
307.956604 24.0 
308.160614 1768.0 
308.572144 76.0 
308.661743 28.0 
309.166931 152.0 
309.289215 44.0 
309.378906 48.0 
309.59198 52.0 
309.692932 36.0 
309.782684 52.0 
309.99588 20.0 
310.160187 1344.0 
310.66684 80.0 
310.849457 40.0 
311.157074 788.0 
311.332916 48.0 
311.477264 48.0 
311.670441 44.0 
311.842438 76.0 
312.010376 144.0 
312.165802 304.0 
312.473175 56.0 
312.616455 44.0 
312.695343 36.0 
312.794739 44.0 
312.87912 52.0 
313.162964 372.0 
313.518768 32.0 
313.665497 36.0 
313.812286 32.0 
313.978088 64.0 
314.18515 3456.0 
314.358002 92.0 
314.438171 48.0 
314.569336 40.0 
314.727631 32.0 
314.950745 44.0 
315.193481 3832.0 
315.585419 40.0 
315.830566 36.0 
316.175568 3816.0 
316.509186 52.0 
316.641052 40.0 
316.932709 68.0 
317.178558 280.0 
317.384186 48.0 
317.634369 36.0 
317.929932 68.0 
318.186005 2064.0 
318.294678 168.0 
318.390961 24.0 
318.516083 32.0 
318.686737 48.0 
318.910248 44.0 
319.039612 48.0 
319.184753 620.0 
319.700348 24.0 
319.81308 36.0 
319.985352 36.0 
320.169067 508.0 
320.474823 44.0 
320.618744 100.0 
320.749786 52.0 
320.880463 40.0 
321.17804 252.0 
321.412292 48.0 
321.492279 76.0 
321.800964 36.0 
322.052582 44.0 
322.1604 228.0 
322.384399 136.0 
322.57901 24.0 
322.693512 40.0 
322.865295 56.0 
323.03714 56.0 
323.759338 28.0 
324.17215 488.0 
324.390472 64.0 
324.815399 28.0 
324.976257 52.0 
325.181854 2020.0 
325.551086 36.0 
325.965271 36.0 
326.18219 684.0 
326.95578 64.0 
327.179016 716.0 
327.520813 20.0 
328.170776 3072.0 
328.441711 52.0 
328.571472 56.0 
328.623474 32.0 
328.72171 88.0 
328.883514 68.0 
329.059082 44.0 
329.177704 1228.0 
329.334534 64.0 
329.600647 40.0 
329.909149 96.0 
330.218231 6488.0 
330.480774 36.0 
330.578369 44.0 
330.715637 60.0 
330.859802 40.0 
330.950256 56.0 
331.224274 2064.0 
331.385284 32.0 
331.73349 40.0 
331.930878 64.0 
332.012177 132.0 
332.202789 1604.0 
332.535065 104.0 
332.631256 44.0 
332.767609 32.0 
332.93042 48.0 
333.070007 36.0 
333.200806 692.0 
333.337646 24.0 
333.45401 92.0 
333.849915 36.0 
334.182892 804.0 
334.302612 56.0 
334.572418 36.0 
335.177002 316.0 
335.529205 68.0 
335.926331 24.0 
336.179932 168.0 
336.534149 36.0 
336.674469 20.0 
336.990356 60.0 
337.083984 52.0 
337.201538 92.0 
337.306396 32.0 
337.767365 44.0 
337.88028 76.0 
338.017975 32.0 
338.180756 88.0 
338.4664 68.0 
338.947388 32.0 
339.197571 64.0 
339.569672 60.0 
339.769409 132.0 
339.910431 44.0 
340.034119 92.0 
340.206787 3412.0 
340.533569 52.0 
340.658752 64.0 
340.968964 32.0 
341.202484 984.0 
341.593109 28.0 
341.710907 44.0 
341.993774 28.0 
342.192841 664.0 
342.448853 52.0 
342.825653 44.0 
342.972931 40.0 
343.19223 4600.0 
343.409851 40.0 
343.516174 72.0 
343.743103 156.0 
343.953461 32.0 
344.036224 36.0 
344.193726 1308.0 
344.320038 80.0 
344.445953 56.0 
344.627655 48.0 
344.781494 92.0 
344.947235 28.0 
345.187714 472.0 
345.314331 56.0 
345.409119 28.0 
345.752777 44.0 
345.847595 40.0 
345.942963 48.0 
346.191895 336.0 
346.364471 68.0 
346.523651 44.0 
346.737274 84.0 
346.840149 36.0 
346.927216 40.0 
347.069702 164.0 
347.196259 196.0 
347.562714 40.0 
347.843109 44.0 
348.105835 100.0 
348.230774 5080.0 
348.84845 52.0 
349.235443 1552.0 
349.398651 188.0 
350.230743 180.0 
350.331238 24.0 
351.250549 48.0 
351.427399 40.0 
351.960938 120.0 
352.188141 84.0 
352.673645 72.0 
352.913116 24.0 
353.171936 108.0 
353.38031 44.0 
353.512115 32.0 
353.787842 36.0 
353.943726 52.0 
354.735687 108.0 
355.173584 192.0 
355.480438 32.0 
355.720856 32.0 
355.973389 164.0 
356.087646 64.0 
356.188538 296.0 
356.293152 144.0 
356.39801 68.0 
356.532562 140.0 
356.660339 40.0 
356.842865 64.0 
357.068665 72.0 
357.220337 508.0 
357.325287 72.0 
357.399994 100.0 
357.556671 96.0 
357.856659 152.0 
357.945129 112.0 
358.06955 236.0 
358.217072 116652.0 
358.499847 156.0 
358.681 188.0 
358.763855 124.0 
358.849792 96.0 
358.882294 124.0 
358.922058 108.0 
359.040253 140.0 
359.098602 136.0 
359.219177 29956.0 
359.513275 96.0 
359.600952 64.0 
359.702179 80.0 
359.923096 144.0 
360.047394 72.0 
360.220917 3460.0 
360.340973 188.0 
360.542877 112.0 
360.69928 44.0 
360.799072 36.0 
360.900543 52.0 
361.047913 64.0 
361.203583 1240.0 
361.44693 108.0 
361.822052 76.0 
362.036499 56.0 
362.207825 184.0 
362.37619 68.0 
362.533966 32.0 
362.624359 64.0 
362.748993 140.0 
362.924866 48.0 
363.043884 32.0 
363.208557 72.0 
363.384064 28.0 
363.566345 32.0 
363.979736 40.0 
364.113495 108.0 
364.309235 44.0 
364.412994 52.0 
364.571991 68.0 
364.683014 40.0 
365.022064 44.0 
365.172516 48.0 
365.343079 40.0 
365.501495 40.0 
365.74527 44.0 
365.928162 48.0 
366.257446 124.0 
366.477081 24.0 
366.879883 36.0 
366.989777 32.0 
367.218353 212.0 
367.453979 80.0 
367.600616 32.0 
368.198669 324.0 
368.341095 40.0 
368.62796 48.0 
368.872772 36.0 
368.958496 32.0 
369.197296 204.0 
369.476624 40.0 
370.085815 40.0 
370.195435 284.0 
370.466095 52.0 
370.711517 52.0 
370.809692 44.0 
371.183502 72.0 
371.423706 24.0 
371.730896 40.0 
371.998535 160.0 
373.231812 256.0 
373.527435 32.0 
373.675293 52.0 
373.884796 32.0 
373.995728 36.0 
374.107361 148.0 
374.249176 52.0 
374.325714 96.0 
374.434418 132.0 
374.584869 80.0 
374.730469 28.0 
374.890594 44.0 
375.056671 40.0 
375.253143 164.0 
375.417511 40.0 
375.507019 36.0 
375.707428 80.0 
375.76828 68.0 
376.062836 120.0 
376.108002 224.0 
376.227234 67028.0 
376.515198 164.0 
376.69809 116.0 
376.819977 52.0 
376.871124 100.0 
376.899994 68.0 
376.989899 164.0 
377.067322 76.0 
377.229797 17832.0 
377.403809 112.0 
377.506287 88.0 
377.609955 84.0 
377.781799 92.0 
377.985168 84.0 
378.231171 2324.0 
378.434448 32.0 
378.607056 48.0 
378.707306 32.0 
378.852295 176.0 
378.981537 40.0 
379.226562 228.0 
379.30835 92.0 
379.702148 56.0 
379.928925 100.0 
380.139221 68.0 
380.222229 84.0 
380.380737 48.0 
380.530945 48.0 
380.61261 60.0 
380.867493 36.0 
381.030609 148.0 
381.151306 40.0 
381.581696 44.0 
381.827362 56.0 
382.475342 40.0 
382.824493 120.0 
383.049042 36.0 
383.189148 52.0 
383.985291 132.0 
384.13208 96.0 
384.179626 72.0 
384.522614 28.0 
384.722626 56.0 
384.889343 168.0 
385.086578 40.0 
385.22879 1708.0 
385.407837 36.0 
385.44223 76.0 
385.598358 36.0 
385.762909 84.0 
386.225647 644.0 
386.500122 40.0 
386.600403 40.0 
386.841949 104.0 
386.899872 36.0 
386.947968 132.0 
387.090668 76.0 
387.204193 800.0 
387.320831 44.0 
387.603729 64.0 
387.763458 44.0 
387.859589 52.0 
388.207916 300.0 
388.633514 40.0 
389.224365 64.0 
389.463348 40.0 
389.639465 64.0 
389.828247 32.0 
389.966705 56.0 
390.68454 48.0 
391.037415 52.0 
391.201294 52.0 
391.945526 40.0 
392.122223 36.0 
392.665192 32.0 
393.208557 40.0 
394.017944 52.0 
395.018188 48.0 
395.461731 44.0 
396.045074 36.0 
397.27655 44.0 
397.479858 96.0 
398.306366 32.0 
398.433594 32.0 
398.853577 36.0 
399.03183 44.0 
399.796234 32.0 
400.051178 136.0 
400.165924 116.0 
400.285095 76.0 
400.446503 56.0 
401.134705 164.0 
401.375916 44.0 
401.735931 44.0 
401.863708 44.0 
402.227356 1384.0 
402.438934 32.0 
402.597809 60.0 
402.942505 76.0 
403.065796 32.0 
403.236725 9884.0 
403.382233 116.0 
403.526642 96.0 
403.629089 48.0 
403.779938 140.0 
403.863739 76.0 
404.003754 84.0 
404.242126 3168.0 
404.386169 48.0 
404.679901 32.0 
404.987732 32.0 
405.097443 44.0 
405.247437 284.0 
405.53952 56.0 
405.629395 52.0 
405.744965 140.0 
405.896881 40.0 
406.001801 64.0 
406.477173 40.0 
406.759949 52.0 
407.482483 184.0 
408.098114 196.0 
408.677795 112.0 
410.057831 84.0 
411.388458 88.0 
412.941406 128.0 
414.471344 40.0 
415.016602 28.0 
416.134155 116.0 
417.722107 32.0 
420.253418 136.0 
422.844818 116.0 
425.194397 44.0 
425.444183 36.0 
426.72052 52.0 
428.025146 108.0 
428.539612 36.0 
429.543091 124.0 
429.820587 52.0 
433.037994 48.0 
433.130859 132.0 
433.773163 120.0 
434.152985 100.0 
435.854736 160.0 
436.440491 56.0 
436.533722 112.0 
437.319855 96.0 
437.773224 96.0 
439.241577 108.0 
443.889618 80.0 
444.897461 56.0 
447.240051 84.0 
449.480652 108.0 
451.076782 148.0 
453.856445 36.0 
455.732452 96.0 
456.086334 116.0 
460.029114 100.0 
461.46579 76.0 
463.041901 176.0 
463.302551 100.0 
463.607788 132.0 
464.964264 36.0 
465.541748 96.0 
467.469269 84.0 
469.000366 72.0 
470.824371 60.0 
471.322449 128.0 
471.668488 80.0 
471.917694 128.0 
472.125458 120.0 
472.693512 80.0 
474.358063 108.0 
476.178528 136.0 
477.250214 136.0 
478.588013 136.0 
480.193054 48.0 
480.360718 128.0 
481.535004 108.0 
483.495331 144.0 
485.131561 132.0 
485.389404 104.0 
485.628174 80.0 
486.879211 124.0 
490.444305 72.0 
495.908569 44.0 
496.391327 36.0 
496.490753 84.0 
497.485504 84.0 
500.261841 120.0 
502.08847 32.0 
502.76004 96.0 
502.988739 144.0 
503.303314 188.0 
503.474945 40.0 
506.339661 128.0 
506.72702 32.0 
512.006897 28.0 
512.54071 144.0 
515.517883 128.0 
516.111511 104.0 
516.546021 36.0 
518.21344 68.0 
518.779541 112.0 
521.236145 80.0 
522.648804 108.0 
525.815918 132.0 
526.283752 24.0 
527.103027 124.0 
531.82605 128.0 
534.460632 48.0 
535.655029 48.0 
536.112427 168.0 
537.574646 148.0 
538.831665 124.0 
539.882751 88.0 
541.943481 76.0 
542.418457 124.0 
544.632751 132.0 
546.195923 112.0 
548.149292 116.0 
548.731445 20.0 
550.046265 32.0 
553.535156 156.0 
553.790161 128.0 
553.985229 44.0 
554.165283 136.0 
557.080261 128.0 
557.561829 48.0 
557.742432 132.0 
557.968262 80.0 
560.425354 100.0 
561.285828 144.0 
562.207397 164.0 
562.479492 112.0 
564.355713 188.0 
566.583984 144.0 
566.857178 44.0 
567.434021 100.0 
569.348877 68.0 
573.218811 72.0 
573.78363 40.0 
574.028015 88.0 
574.924133 104.0 
578.005737 140.0 
580.429688 88.0 
581.95105 64.0 
583.027954 132.0 
583.844055 72.0 
585.369873 92.0 
585.72467 100.0 
588.195618 72.0 
590.1297 116.0 
590.87323 52.0 
591.167664 32.0 
591.958374 120.0 
595.468689 68.0 
597.866577 84.0 
600.409851 168.0 
606.218689 100.0 
608.386536 128.0 
610.243286 124.0 
611.156921 80.0 
613.854675 80.0 
620.934631 80.0 
623.351379 96.0 
623.892639 128.0 
624.688965 92.0 
625.788818 120.0 
636.003845 88.0 
638.643005 44.0 
639.126404 84.0 
642.919128 52.0 
643.339417 96.0 
645.167725 112.0 
645.896545 108.0 
646.950012 96.0 
648.1828 116.0 
649.806763 108.0 
653.174744 88.0 
655.392212 140.0 
656.07782 180.0 
656.698425 56.0 
658.774658 120.0 
661.198303 116.0 
665.812256 108.0 
668.380676 108.0 
670.376221 136.0 
675.121399 124.0 
676.861633 108.0 
677.044067 36.0 
678.205627 72.0 
682.528687 36.0 
683.34491 64.0 
683.578247 104.0 
684.245056 52.0 
684.862122 164.0 
692.909668 72.0 
695.244019 108.0 
696.35376 124.0 
702.439514 80.0 
716.218872 192.0 
718.922913 68.0 
723.425049 92.0 
735.027039 64.0 
739.943359 132.0 
742.529236 104.0 
745.76355 76.0 
752.078552 172.0 
755.578857 156.0 
758.209473 172.0 
758.332336 76.0 
759.298096 88.0 
763.220154 60.0 
770.280579 72.0 
779.721313 164.0 
785.927917 92.0 
786.428406 88.0 
790.330261 48.0 
801.534119 100.0 
802.924316 40.0 
806.341797 88.0 
810.437805 60.0 
813.471191 92.0 
814.071289 48.0 
834.66095 56.0 
839.012817 56.0 
842.04364 28.0 
842.857727 120.0 
845.710144 104.0 
850.369507 60.0 
857.298523 116.0 
875.140137 148.0 
883.987671 36.0 
885.921875 112.0 
892.30835 60.0 
895.452942 56.0 
908.298096 92.0 
914.841675 44.0 
917.678101 24.0 
917.851929 44.0 
928.387756 52.0 
955.79834 92.0 
967.163635 60.0 
970.854431 64.0 
982.328613 48.0 
984.907593 100.0 
1013.864746 100.0 
1019.779846 128.0 
1050.212158 180.0 
1084.9729 56.0 
1095.201416 44.0 
1126.174683 52.0 
1135.048218 24.0 
1135.284546 36.0 
1146.739624 36.0 
1215.055176 36.0 
1256.374146 128.0 
1476.930054 96.0 
END IONS

