BEGIN IONS
PEPMASS=173.009
CHARGE=1+
COMPOUNDNAME=ReSpect:PT206570 cis-Aconitic Acid|Achilleaic acid|cis-aconitate|cis-Oxaloacetic acid|cis-1,2,3-Propenetricarboxylic Acid|cis-Propene-1,2,3-tricarboxylic acid|(Z)-prop-1-ene-1,2,3-tricarboxylic acid
LIBRARYQUALITY=3
SMILES=C(C(=CC(=O)O)C(=O)O)C(=O)O
INCHIKEY=GTZCVFVGUGFEME-UHFFFAOYSA-N
INCHI=1/C6H6O6/c7-4(8)1-3(6(11)12)2-5(9)10/h1H,2H2,(H,7,8)(H,9,10)(H,11,12)/b3-1-/f/h7,9,11H
MSLEVEL=2
SOURCE_INSTRUMENT=ESI-LC-Q-TOF/MS
FILENAME=respect_8_1_2014_GNPS_peaks.mgf
SEQ=*..*
IONMODE=Positive
ORGANISM=RESPECT
NAME=ReSpect:PT206570 cis-Aconitic Acid|Achilleaic acid|cis-aconitate|cis-Oxaloacetic acid|cis-1,2,3-Propenetricarboxylic Acid|cis-Propene-1,2,3-tricarboxylic acid|(Z)-prop-1-ene-1,2,3-tricarboxylic acid [M+H]
PI=Putative ReSpect Match
DATACOLLECTOR=ReSpect
PUBMED=N/A
SUBMITUSER=mwang87
TAGS=
SPECTRUMID=CCMSLIB00000222246
SCANS=6852
85.029503 999.0 
111.0084 106.0 
129.017807 267.0 
173.008606 87.0 
END IONS

