BEGIN IONS
PEPMASS=542.0
CHARGE=1+
COMPOUNDNAME=MoNA:2510802 Adriamycin
LIBRARYQUALITY=3
SMILES=N/A
INCHIKEY=AOJJSUZBOXZQNB-UHFFFAOYSA-N
INCHI=InChI=1S/C27H29NO11/c1-10-22(31)13(28)6-17(38-10)39-15-8-27(36,16(30)9-29)7-12-19(15)26(35)21-20(24(12)33)23(32)11-4-3-5-14(37-2)18(11)25(21)34/h3-5,10,13,15,17,22,29,31,33,35-36H,6-9,28H2,1-2H3
MSLEVEL=2
SOURCE_INSTRUMENT=LC-ESI-QQ-LC-ESI-QQ
FILENAME=output_mgf.mgf
SEQ=*..*
IONMODE=
ORGANISM=MONA
NAME=MoNA:2510802 Adriamycin [M-H]-
PI=MoNA
DATACOLLECTOR=MoNA
PUBMED=N/A
SUBMITUSER=mwang87
TAGS=
SPECTRUMID=CCMSLIB00000574534
SCANS=11785
140.9 0.181818 
337.0 0.181818 
373.3 0.227273 
389.4 0.181818 
395.2 10.227273 
410.6 0.363636 
438.2 0.272727 
453.0 0.363636 
482.5 0.318182 
542.5 100.0 
END IONS

