BEGIN IONS
PEPMASS=387.061
CHARGE=1+
COMPOUNDNAME=(4R,6S,8S,9Z,11E)-16-chloro-17,19-dihydroxy-4-methyl-3,7-dioxatricyclo[13.4.0.0?,?]nonadeca-1(15),9,11,16,18-pentaene-2,13-dione
LIBRARYQUALITY=3
SMILES=N/A
INCHIKEY=WYZWZEOGROVVHK-RPJJWQTDSA-N
INCHI=InChI=1S/C18H17ClO6/c1-9-6-15-14(25-15)5-3-2-4-10(20)7-11-16(18(23)24-9)12(21)8-13(22)17(11)19/h2-5,8-9,14-15,21-22H,6-7H2,1H3/b4-2+,5-3-/t9-,14+,15+/m1/s1
MSLEVEL=2
SOURCE_INSTRUMENT=N/A-ESI-QFT
FILENAME=library_mgf.mgf
SEQ=*..*
IONMODE=positive
ORGANISM=MONA
NAME=(4R,6S,8S,9Z,11E)-16-chloro-17,19-dihydroxy-4-methyl-3,7-dioxatricyclo[13.4.0.0?,?]nonadeca-1(15),9,11,16,18-pentaene-2,13-dione [M+Na]+
PI=MoNA
DATACOLLECTOR=MoNA:VF-NPL-QEHF022110
PUBMED=N/A
SUBMITUSER=mwang87
TAGS=
SPECTRUMID=CCMSLIB00004713173
SCANS=22110
50.137524 0.040557 
50.561726 0.065789 
50.75301 0.034189 
51.658386 0.058366 
51.940308 0.559912 
52.052742 0.03832 
53.002525 0.189141 
53.038898 2.835206 
53.186352 0.079453 
53.30899 0.079973 
53.807194 0.066296 
53.808079 0.063997 
53.939434 0.059132 
54.890701 0.077291 
54.937809 1.244248 
54.943783 0.062237 
54.94725 0.043204 
55.018162 2.674776 
55.054543 6.150435 
55.269276 0.057496 
55.311668 0.057245 
55.934685 4.20824 
55.945644 2.367668 
56.049774 0.116971 
56.292091 0.05986 
56.307785 0.041733 
56.942493 2.480339 
56.965061 0.695036 
57.033772 0.462227 
57.070168 3.605668 
57.080517 0.06558 
57.935047 1.270685 
58.065353 1.592871 
59.049347 0.229614 
59.836273 0.033224 
59.930473 0.404622 
60.044632 0.489934 
61.010872 24.696957 
61.019184 0.067048 
61.949001 0.045223 
62.014122 0.038882 
62.018642 0.543301 
63.006599 0.082602 
63.979092 0.059785 
63.997925 0.480024 
65.038712 3.70595 
67.01796 1.83211 
67.054337 10.302617 
67.285477 0.072011 
67.450714 0.065423 
68.049629 0.042601 
68.306511 0.064377 
68.94268 0.042705 
68.962578 0.293258 
68.997223 1.143626 
69.033607 4.671585 
69.069969 3.086405 
69.961029 0.348956 
69.965721 0.04214 
70.065247 1.318224 
70.583984 0.061165 
70.9058 0.070199 
70.941879 0.961456 
70.955902 0.125205 
70.957947 6.846185 
71.049202 0.880995 
71.085602 0.983697 
71.483971 0.044794 
71.929329 1.500876 
71.938194 0.031148 
71.940277 0.958029 
72.080765 0.057972 
72.514725 0.048643 
72.529602 0.064326 
72.880692 0.033233 
72.937187 11.86504 
72.939484 0.0538 
73.945061 0.209769 
73.955933 0.233349 
74.684723 0.054729 
74.930969 0.44459 
74.952843 0.592987 
75.945412 0.042613 
76.927994 0.160579 
77.008354 0.05936 
77.038628 0.228633 
79.021248 11.895092 
79.054276 5.175349 
79.250458 0.07615 
80.04953 0.130953 
80.057747 0.076034 
81.033524 6.062025 
81.069893 4.552913 
82.036827 0.04456 
82.065292 0.105565 
82.073288 0.083554 
82.505714 0.042032 
82.768272 0.035183 
82.957756 0.145239 
83.049133 2.180379 
83.085487 1.122509 
83.372932 0.067734 
84.044342 0.04558 
84.080757 0.206542 
85.028488 0.258513 
85.03978 0.146327 
85.042549 0.075707 
85.064796 0.122001 
85.10128 0.066774 
86.096283 0.099468 
86.973091 0.071784 
87.380096 0.051506 
87.732475 0.058043 
87.862595 0.061877 
87.906456 0.276957 
87.971642 0.0496 
88.075813 0.130817 
88.231628 0.067435 
88.588814 0.033424 
88.704506 0.033929 
88.914238 0.12888 
88.952446 0.540803 
88.968437 2.445926 
89.038498 0.035639 
89.059738 0.458101 
89.187653 0.070742 
89.484268 0.058287 
89.939842 1.093179 
89.950851 0.721849 
90.558723 0.073757 
90.674057 0.035971 
90.903305 0.19732 
90.94474 0.063798 
90.947746 8.973743 
91.054253 8.725345 
92.057533 0.129349 
93.033539 8.091247 
93.069939 3.241623 
94.036819 0.231436 
94.065155 0.136621 
94.073158 0.071392 
95.049179 11.115289 
95.085518 2.710268 
96.052361 0.383317 
96.080711 0.255381 
97.02845 0.312405 
97.064888 0.276709 
97.101166 0.490728 
97.488205 0.066227 
98.060165 0.036622 
98.975479 0.100579 
99.044052 0.35296 
100.698372 0.049236 
100.702644 0.052217 
100.968491 0.606181 
102.666862 0.054199 
102.687538 0.060406 
102.761024 0.056407 
102.929749 0.039244 
102.947754 0.435417 
102.968987 0.039274 
103.054253 1.104184 
103.389267 0.047154 
103.876671 0.053637 
104.689728 0.06449 
104.963211 0.156352 
105.033638 0.237659 
105.044815 0.941873 
105.069939 3.589273 
105.468727 0.060685 
105.845406 0.033557 
105.935051 0.059555 
106.0653 0.122047 
106.073242 0.046272 
106.769264 0.063617 
106.962936 0.042609 
106.979385 0.046705 
107.04908 1.654133 
107.08551 0.514525 
107.95047 0.481423 
107.961426 0.379955 
108.080559 0.123345 
108.958252 1.327462 
109.028435 0.235218 
109.064743 0.145266 
109.101234 0.447783 
110.035881 0.069883 
110.060226 0.076688 
110.096657 0.095678 
111.044022 1.83339 
111.391869 0.070786 
112.075684 0.047002 
112.968872 0.095615 
113.059532 0.146775 
113.24482 0.074427 
113.976112 0.073004 
114.968246 0.106461 
114.983971 0.059043 
115.054207 0.919082 
115.966202 0.051641 
116.002823 0.072813 
116.191261 0.072408 
116.963425 2.45705 
116.984741 0.799774 
117.033333 0.127003 
117.069901 0.459339 
117.816498 0.034904 
117.94577 0.083157 
118.92482 0.127531 
118.942566 0.36285 
119.049103 0.735283 
119.085625 0.426062 
120.044106 0.042049 
120.080589 0.141106 
120.940544 3.226725 
121.028465 29.828453 
121.064781 1.704911 
121.101387 0.127743 
122.0317 0.732393 
122.059677 0.046185 
122.491776 0.0553 
122.940735 0.042408 
123.044014 0.034592 
123.080643 0.062789 
124.075432 0.076119 
124.96862 0.033918 
125.059715 1.506973 
125.961113 0.140846 
126.945831 0.06269 
126.984001 1.929348 
128.062012 0.071946 
128.963501 1.778835 
128.984253 0.054326 
129.03331 0.04054 
129.069794 0.298687 
129.981888 0.067246 
130.018372 0.038969 
130.065353 0.069987 
130.979126 2.153618 
131.000137 1.680361 
131.049088 2.016979 
131.085693 0.116565 
131.986526 0.095657 
132.052383 0.044008 
132.958939 0.746045 
132.994705 0.03604 
133.028244 0.208211 
133.064819 3.826335 
133.959152 1.581304 
134.059937 0.213903 
134.858826 0.049394 
134.956055 12.039214 
134.973923 0.554284 
134.989105 0.9579 
135.043884 1.137507 
135.080093 0.043387 
135.927567 0.062629 
136.076172 0.112123 
136.953018 0.136876 
137.059708 0.13795 
137.927872 0.143025 
137.953873 0.042404 
138.951019 1.603847 
138.984116 1.665722 
139.03894 9.661311 
139.054169 0.066714 
139.075241 0.041508 
140.172028 0.064895 
140.984421 0.953842 
140.999634 1.540611 
141.054535 6.000337 
141.063919 0.059962 
141.069794 0.280169 
141.189514 0.069761 
142.97905 1.664155 
143.000061 0.725472 
143.006638 0.043598 
143.494736 0.061796 
144.034164 0.132436 
144.081055 0.07446 
144.253815 0.067271 
144.958176 0.543287 
144.994537 1.550029 
145.028458 0.449714 
145.064941 0.264402 
146.974243 2.93917 
146.98909 0.665922 
147.002167 0.080013 
147.009995 0.056763 
147.043915 2.599573 
147.974655 0.065394 
148.051834 0.918435 
148.95578 1.193247 
148.97197 0.68641 
148.989426 1.673289 
149.00473 0.5361 
149.010925 0.038398 
149.023407 3.661265 
149.954224 0.052189 
150.054977 4.795167 
150.95108 11.516933 
150.969116 0.744867 
150.984116 0.317138 
151.020416 2.948448 
151.038971 0.226219 
151.058258 0.059863 
151.969543 0.117529 
152.061859 0.065895 
152.951706 0.421598 
152.966751 5.233629 
152.999725 0.551881 
153.020966 0.09441 
153.054413 2.993055 
153.070114 0.066284 
153.575409 0.052678 
153.93782 0.056639 
153.959198 1.685232 
154.018555 0.05656 
154.946823 0.114001 
154.979065 0.277248 
154.989349 1.073769 
155.000443 0.071238 
155.015121 0.295958 
155.048981 0.04109 
155.496002 0.05289 
155.954697 0.616987 
156.986588 8.024501 
156.994186 0.643959 
157.004959 0.168692 
157.015503 0.192368 
157.065094 0.071058 
157.590683 0.071553 
157.989853 1.228068 
158.049759 0.054938 
158.973999 0.255021 
159.002655 0.532962 
159.010239 1.036727 
159.044083 0.341589 
160.051941 0.959391 
160.95253 0.057447 
160.989609 0.245984 
161.059692 15.213831 
161.434647 0.066275 
162.055069 1.084655 
162.063095 0.769918 
162.968765 0.22987 
163.004517 0.170846 
163.020584 0.250654 
163.03894 8.642646 
163.074783 0.040749 
163.976089 0.055003 
164.046783 6.429048 
164.984146 0.105749 
164.999756 2.97745 
165.036209 1.907188 
165.069931 0.128306 
165.97113 0.367911 
166.966599 0.057364 
166.979019 0.916991 
166.999878 0.068951 
167.015549 0.143407 
167.034012 1.035262 
168.057617 0.044289 
168.961655 2.757291 
168.994553 0.61452 
169.005066 0.307517 
169.016266 0.085174 
169.064911 0.423697 
170.973862 0.069325 
171.002136 6.899747 
171.009827 0.600763 
171.079529 0.064951 
172.005524 1.273999 
172.065323 0.23531 
172.989746 0.344459 
173.025406 0.074152 
173.059708 0.291072 
174.06752 0.094854 
174.990112 0.124856 
175.005402 0.070737 
175.020798 0.132302 
175.038986 4.940323 
176.046799 1.997967 
176.985138 0.20415 
177.054886 1.168318 
178.979065 0.78901 
179.000626 0.045032 
179.015518 0.273251 
179.051666 1.157182 
180.888306 0.907754 
180.994736 0.555263 
181.004852 0.110623 
181.049454 5.746174 
181.063995 0.06923 
181.08284 0.078872 
182.614258 0.074081 
182.889069 0.044275 
182.983704 0.064508 
183.002075 1.158472 
183.010513 0.163035 
184.005676 0.152201 
184.051315 0.082476 
184.240295 0.055582 
184.981262 0.285856 
184.989777 0.463748 
185.059845 0.426771 
185.949799 0.062295 
186.996704 0.125672 
187.005524 0.494476 
187.039108 0.227273 
189.005951 0.086668 
189.054688 100.0 
190.057968 6.842446 
190.076385 0.052706 
191.000977 0.049297 
191.060883 0.173113 
191.070389 1.234014 
192.041718 9.334725 
192.898926 0.077746 
192.961899 0.050526 
192.994659 0.538238 
193.031021 0.040808 
193.04953 3.781027 
193.06691 0.285749 
194.974243 0.083188 
195.010498 0.037963 
195.044327 0.049222 
196.065475 0.083322 
196.990189 0.118126 
197.000107 1.367427 
197.017563 0.345584 
197.059662 0.204733 
197.890884 0.061852 
198.003937 0.072121 
198.06749 0.132898 
198.366486 0.062794 
198.996979 9.142603 
199.005203 0.606692 
200.000626 2.228653 
200.867874 0.06813 
200.97612 0.048266 
200.994736 0.046726 
201.012466 0.272297 
201.036179 0.066914 
201.054596 0.272512 
202.98111 0.070508 
202.991791 3.189767 
203.033737 0.323632 
203.05159 0.126337 
203.163254 0.058566 
203.995804 0.231996 
204.041779 3.175559 
204.995117 0.055724 
205.049072 0.139954 
205.066681 0.062187 
207.009491 0.079342 
207.065323 48.633297 
207.875839 0.502834 
208.068527 0.501548 
208.884018 0.212801 
209.000275 0.067491 
209.026199 0.055225 
209.876236 0.512309 
209.891647 0.293579 
210.357758 0.062002 
210.996826 0.654353 
211.87175 0.166682 
211.890778 0.116951 
212.976303 1.562147 
213.021133 0.047767 
213.036285 0.051546 
213.054306 0.512573 
213.770157 0.068489 
213.868637 0.062983 
213.907532 0.048589 
213.979202 0.059449 
214.062332 0.425972 
214.979599 0.039408 
214.992035 0.061856 
215.051788 0.114511 
215.651642 0.082085 
215.902191 0.138423 
216.041489 0.049236 
218.973785 0.064643 
219.065308 51.679218 
219.620911 0.336787 
219.623657 0.33924 
220.06871 4.50661 
220.9039 0.085912 
221.059433 0.055592 
221.070633 0.06542 
222.898529 1.721474 
224.878754 0.042179 
224.899063 1.376134 
225.015167 0.064965 
225.886322 0.438319 
226.062836 0.121596 
226.895035 0.4047 
227.037079 0.052874 
227.053238 0.067016 
229.049377 0.136175 
229.067932 0.055467 
229.169876 0.451469 
229.896393 0.104927 
230.057388 0.156137 
230.888397 0.078285 
231.065277 0.132342 
231.993134 0.059661 
232.883484 0.061348 
232.989517 1.491648 
233.017639 0.04382 
233.044724 0.318851 
233.99411 0.126679 
234.898804 0.051594 
234.943039 0.045866 
234.968964 0.408449 
235.997589 0.28498 
236.985153 0.070556 
237.226578 0.054929 
237.99295 0.07495 
238.914398 0.099878 
239.886261 0.051473 
240.909241 2.866037 
241.007202 0.125699 
241.047058 1.147595 
241.911804 0.053436 
242.057816 0.076557 
242.596359 0.059047 
242.909714 4.299471 
243.065918 0.350236 
243.185822 0.212158 
243.909821 0.037366 
244.905045 0.92501 
244.989594 0.360901 
245.080917 0.087642 
248.081863 0.036094 
248.983688 0.056707 
249.506958 0.082932 
250.893524 0.063446 
250.999847 0.350581 
251.072189 0.197149 
252.936447 0.134943 
252.979935 0.186562 
253.0672 0.397389 
253.086166 0.136904 
255.066132 0.62832 
255.083069 0.466225 
255.897705 0.062233 
257.082092 0.332346 
257.896332 0.079766 
259.23822 0.051719 
260.98407 0.523753 
263.000183 0.140262 
263.971405 2.016919 
264.977997 0.738301 
265.087646 0.052364 
266.056946 0.071356 
266.119965 0.137363 
266.909882 0.052204 
267.064453 0.048215 
268.965912 0.278024 
269.081787 0.297515 
270.945801 0.567165 
274.613831 0.07201 
274.727875 0.08276 
275.000153 0.041031 
275.638 0.050433 
277.110321 0.039901 
277.819366 0.15166 
278.818268 1.452022 
278.902039 0.040168 
278.995209 0.372659 
279.065857 0.159813 
280.072693 0.251902 
280.813141 5.528879 
280.987518 0.052837 
281.081421 0.223012 
281.821228 0.379516 
281.981842 0.362921 
282.987976 0.059272 
284.278442 0.062966 
286.547668 0.075465 
286.939972 0.050003 
288.007935 0.069171 
290.995026 0.053825 
291.768524 0.074166 
291.804657 0.063673 
293.009949 0.317072 
294.016876 0.086869 
295.09613 0.077114 
296.81012 0.067774 
296.829498 0.070314 
297.814789 0.113631 
298.82428 0.054213 
298.939758 0.146515 
299.221649 0.041568 
300.011597 0.073091 
300.059174 0.047473 
301.310455 0.053701 
303.104065 0.237288 
305.120789 0.316478 
305.140167 0.065543 
306.139465 0.071247 
307.085266 0.098827 
307.136108 1.044517 
308.089294 0.067397 
309.151367 0.071432 
309.810211 0.068889 
309.977905 0.128286 
310.807617 0.040819 
316.950928 0.124533 
321.864227 0.055987 
322.82428 0.573938 
325.146698 0.364344 
338.706573 0.063101 
342.068146 0.083869 
343.155823 0.075558 
344.128754 0.101687 
348.522949 0.074927 
349.665558 0.055165 
351.362 0.088215 
388.975983 0.048856 
389.090302 0.075195 
409.331757 0.065593 
END IONS

