BEGIN IONS
TITLE=Scan Number: 762
PEPMASS=851.31299
CHARGE=1+
COMPOUNDNAME=Microsclerodermin D
LIBRARYQUALITY=1
SMILES=N/A
INCHIKEY=VXSZBEKMOUAWID-IQEALIBRSA-N
INCHI=InChI=1S/C40H49ClN8O12/c1-49-20-33(55)45-27(12-22-17-42-26-13-23(41)10-11-25(22)26)38(59)44-19-32(54)43-18-24(50)14-30(52)47-35(36(57)28(51)9-5-8-21-6-3-2-4-7-21)37(58)39(60)46-29-15-31(53)48-40(29,61)16-34(49)56/h2-8,10-11,13,17,24,27-29,35-37,42,50-51,57-58,61H,9,12,14-16,18-20H2,1H3,(H,43,54)(H,44,59)(H,45,55)(H,46,60)(H,47,52)(H,48,53)/b8-5+/t24-,27-,28+,29-,35-,36-,37+,40-/m1/s1
MSLEVEL=2
SOURCE_INSTRUMENT=LC-ESI-Hybrid Ft
FILENAME=microscleroderminD_M-H2O+H_orbi_spec762.mzXML
SEQ=*..*
NOTES=
IONMODE=Positive
ORGANISM=GNPS-LIBRARY
NAME=Microsclerodermin D M+H-H2O
SPECTRUMID=CCMSLIB00000427297
ACTIVATION=CID
INSTRUMENT=ion trap
SCANS=762
242.929459 20.779182 
246.097778 6.590697 
248.127548 10.131609 
264.367737 16.969505 
266.420776 36.34935 
267.302429 3.331906 
268.48764 14.044447 
279.264984 23.50651 
284.367004 39.978577 
292.37262 43.359879 
294.299805 28.332165 
295.085938 19.785738 
297.127991 19.02718 
301.637848 18.222235 
302.290894 8.918438 
303.582153 7.809491 
305.18866 29.795071 
306.451965 48.228134 
308.242889 5.376289 
311.082184 13.242494 
312.784607 4.560412 
318.294312 13.880685 
321.03833 5.771801 
323.353119 30.655235 
324.459717 10.941619 
329.256409 111.647507 
330.353516 47.108517 
331.164948 11.965979 
334.048981 4.949093 
335.454803 53.581516 
336.188782 45.410767 
347.296112 70.96376 
349.144562 77.746109 
351.038635 8.206465 
354.226624 11.864344 
358.527649 23.078028 
361.821167 37.247505 
365.352722 68.959274 
366.355774 60.767948 
367.457581 60.946045 
368.089417 6.180981 
372.486023 14.046453 
375.226837 26.836481 
379.436005 42.515121 
381.436005 10.644499 
384.453247 57.916084 
386.474304 35.839851 
393.662842 11.21717 
394.431976 8.619507 
396.394592 5.791788 
402.260864 168.859695 
403.271179 25.91782 
404.313171 658.585327 
408.424133 58.981522 
411.437622 6.996462 
413.486938 48.494724 
416.190308 14.609306 
418.305847 83.841682 
420.172241 44.826221 
422.30249 920.233826 
426.305176 20.346251 
427.529114 13.755963 
430.29541 278.77774 
436.1745 15.274385 
438.197388 3.761295 
439.363831 7.732409 
441.566284 6.894686 
444.174438 22.245983 
450.256042 227.545837 
455.299866 223.169083 
456.178223 9.803611 
459.327454 12.240727 
467.502075 45.985207 
468.348511 8.211912 
469.343384 17.605841 
472.793701 51.043579 
473.46167 54.742245 
475.222473 23.22436 
479.35614 19.46117 
483.312927 22.894136 
485.452759 78.418739 
486.594543 69.532776 
487.368164 384.240143 
488.493347 19.451265 
489.470032 14.659357 
490.96521 17.267319 
494.100586 15.764401 
495.441101 16.299278 
498.074829 10.939068 
501.246582 6.998363 
503.409607 396.089905 
504.33667 1863.305908 
505.297607 33.953331 
506.291138 4.557817 
511.402588 3.426119 
513.471313 4.962131 
516.008911 8.214177 
519.254089 12.268754 
520.606567 31.123468 
521.418213 77.651901 
524.377014 41.231651 
525.023804 6.519985 
528.152161 10.343019 
532.572266 13.930826 
534.683228 11.380078 
538.428894 135.174835 
539.262268 37.745338 
542.333801 354.748627 
543.469238 24.637758 
546.294495 55.293545 
556.374939 127.99334 
560.435974 1300.96582 
569.526306 6.096792 
570.167908 71.369476 
574.53418 299.74472 
575.506653 16.323006 
579.381042 8.587871 
580.159119 7.914126 
582.160339 33.362923 
588.403076 91.158638 
594.579773 8.216575 
595.289917 11.369938 
597.526978 27.561861 
600.635437 4.154969 
603.144409 9.402786 
606.769409 38.113583 
612.472595 11.346056 
613.439148 130.053909 
614.28949 8.983702 
621.306213 49.693367 
624.204651 112.470482 
624.895325 35.952366 
626.574768 21.136831 
627.539368 33.47802 
631.448792 60.909851 
639.417175 119.1698 
641.191467 36.487728 
642.414856 425.348114 
644.222961 18.635164 
646.366028 26.453472 
647.499084 12.377603 
651.454773 26.502291 
652.521667 38.796921 
655.149597 16.820223 
656.44873 27.260618 
657.786316 5.369254 
659.440308 7.807223 
664.304871 161.177246 
667.425171 7.405613 
668.501221 7.039361 
669.43811 41.697121 
670.174194 33.012058 
671.381165 13.028152 
677.634949 34.716015 
682.554565 37.243702 
686.467102 10.430485 
695.385498 1769.504028 
696.383728 33.369865 
697.363464 20.924206 
705.410095 19.04533 
713.301819 30901.029297 
714.040771 164.674713 
717.493103 18.779455 
726.597656 9.430951 
727.582764 12.780709 
732.372681 17.822287 
734.466125 17.575205 
737.971741 11.44139 
744.65979 33.462997 
745.48761 38.490837 
750.594543 18.465214 
758.503418 70.200333 
759.604492 6.108023 
762.287598 292.818939 
763.397766 3.361191 
768.5495 21.382929 
769.656921 9.536288 
770.536438 15.785747 
771.730408 18.398508 
773.92218 9.832321 
777.024048 24.734848 
780.461182 117.642387 
784.636169 7.895772 
787.720764 21.86511 
788.523071 38.061516 
789.556396 83.033699 
790.237244 70.775215 
797.402039 207.599762 
798.612 57.440529 
802.37915 504.786255 
805.473694 83.020325 
806.666931 25.587234 
807.430054 74.808464 
815.306213 3153.183594 
816.412903 108.323212 
817.383972 24.594288 
820.442932 7.322283 
823.194519 63.079567 
833.424866 31863.541016 
834.300598 499.078461 
END IONS

