BEGIN IONS
PEPMASS=357.094
CHARGE=1+
COMPOUNDNAME=bisdethiobis(methylthio)gliotoxin
LIBRARYQUALITY=3
SMILES=N/A
INCHIKEY=OVBAGMZLGLXSBN-UOVKNHIHSA-N
INCHI=InChI=1S/C15H20N2O4S2/c1-16-12(20)14(22-2)7-9-5-4-6-10(19)11(9)17(14)13(21)15(16,8-18)23-3/h4-6,10-11,18-19H,7-8H2,1-3H3/t10-,11-,14+,15+/m0/s1
MSLEVEL=2
SOURCE_INSTRUMENT=N/A-ESI-QFT
FILENAME=library_mgf.mgf
SEQ=*..*
IONMODE=positive
ORGANISM=MONA
NAME=bisdethiobis(methylthio)gliotoxin [M+H]+
PI=MoNA
DATACOLLECTOR=MoNA:VF-NPL-QEHF024559
PUBMED=N/A
SUBMITUSER=mwang87
TAGS=
SPECTRUMID=CCMSLIB00004715622
SCANS=24559
50.739868 0.07433 
50.825333 0.045949 
51.873756 0.033325 
51.980446 0.073765 
53.020584 0.079904 
54.054745 0.078718 
54.182678 0.034617 
55.017933 0.046578 
55.054588 1.259323 
56.049797 1.197973 
57.033813 0.769554 
57.070145 3.33149 
57.098721 0.086703 
57.215076 0.04903 
57.504276 0.088561 
58.065372 2.82203 
58.073406 0.050444 
58.822498 0.039116 
58.959843 0.075747 
59.0494 2.262509 
59.211445 0.040853 
59.274834 0.084355 
60.005936 0.089245 
60.044701 0.185142 
60.055874 0.082498 
60.192253 0.031359 
60.36866 0.069531 
60.882912 0.074796 
61.010899 5.160811 
61.028629 0.225538 
61.377838 0.054102 
62.010445 0.02627 
62.018661 0.868795 
62.093063 0.050632 
63.026527 1.836629 
64.320633 0.029247 
65.022072 0.033201 
66.131966 0.047882 
67.033104 0.05188 
67.054344 1.338905 
67.056023 0.038798 
68.049599 0.173264 
68.894318 0.031123 
69.033562 1.4173 
69.069969 2.581377 
69.127693 0.046506 
70.065277 18.889587 
70.073425 0.10649 
71.036743 0.820093 
71.049217 1.197843 
71.06855 0.416536 
71.085617 1.798652 
72.044533 5.96236 
72.080879 1.252538 
72.224464 0.04477 
72.807243 0.045931 
73.02845 0.179932 
73.04689 8.806971 
73.048981 0.099754 
73.064934 0.13514 
74.046417 0.47673 
74.050186 0.138662 
74.060112 0.485694 
74.834312 0.052039 
74.894821 0.050601 
75.043961 1.414662 
79.021233 2.369452 
79.054253 0.754783 
80.049622 0.302925 
81.033592 4.079489 
81.06987 2.432937 
82.065147 0.72232 
83.049156 2.966641 
83.060547 0.05451 
83.08551 2.084511 
84.044388 2.518331 
84.080872 6.593625 
84.18679 0.087066 
85.028419 1.513939 
85.039757 0.414937 
85.064857 0.591594 
85.076195 0.051005 
85.101295 0.521327 
86.060005 1.760841 
86.096489 2.263166 
86.099045 0.057085 
86.479706 0.055956 
87.044189 25.842775 
87.099518 0.045015 
88.021538 0.566266 
88.03949 0.061685 
88.04747 0.393637 
88.075806 1.066415 
89.005493 0.454825 
89.059792 15.621884 
90.037277 0.620481 
90.063057 0.17835 
91.05452 1.652458 
91.057426 17.843483 
92.056984 1.720973 
92.06057 0.614385 
92.982803 0.278439 
93.036789 0.097081 
93.054237 0.938681 
93.070007 1.109407 
94.065201 0.043247 
94.540749 0.040833 
95.012718 0.04534 
95.049149 2.523134 
95.060944 0.047306 
95.085541 2.678732 
96.044434 0.470317 
96.080811 0.686615 
97.028496 3.14906 
97.064941 0.391458 
97.076385 0.036405 
97.101242 1.465581 
97.63932 0.046901 
98.060074 1.829766 
98.096603 0.474003 
98.104706 0.042682 
98.975487 0.437505 
99.044075 1.46523 
99.055244 0.7815 
99.080513 0.711009 
100.039307 2.819367 
100.075737 2.558027 
100.278465 0.07732 
101.047241 0.714694 
101.059731 1.74374 
102.037254 3.204787 
102.055016 0.507359 
102.091347 0.124672 
103.039047 5.022864 
103.0541 0.057965 
103.075394 0.897663 
104.049683 0.107509 
104.106979 0.915211 
105.03347 0.502643 
105.069969 1.814444 
106.065193 3.205011 
106.086288 0.787944 
107.049217 5.031123 
107.085495 0.762721 
108.044525 0.711686 
108.052406 0.047553 
108.080757 0.363311 
109.028557 0.884032 
109.064735 0.339808 
109.101234 1.365636 
110.036324 0.250327 
110.060104 1.362932 
110.071167 0.032872 
110.096512 0.347076 
110.104744 0.051685 
111.044182 9.87501 
111.055405 5.602685 
111.080818 0.031483 
111.116844 0.224981 
111.521126 0.046987 
112.039513 0.23379 
112.047386 0.224441 
112.058693 0.071884 
112.075706 0.76212 
112.087029 1.344646 
113.059723 0.751831 
113.071068 0.210842 
113.848724 0.045583 
114.055244 0.098111 
114.091347 1.01196 
114.102592 0.275956 
115.021133 0.066914 
115.039009 0.2834 
115.07605 0.053203 
115.086716 0.109297 
116.002113 0.0996 
116.070686 0.891157 
116.985909 0.308165 
117.000664 0.098177 
118.027618 0.054876 
118.032333 0.029509 
118.065186 3.705188 
118.08638 2.893901 
119.049278 0.220128 
119.068649 0.043623 
119.085579 0.257657 
120.047874 2.192401 
120.08078 0.762604 
120.765709 0.037611 
121.028442 0.980533 
121.03978 0.053898 
121.064919 3.965489 
121.101158 0.51931 
122.060127 2.031751 
122.071327 0.963782 
122.096603 0.207332 
122.476738 0.065286 
123.044151 3.81582 
123.079475 0.74288 
123.091438 0.112961 
123.116898 0.777195 
123.810493 0.081562 
124.039345 1.216453 
124.052132 0.186101 
124.075798 1.689585 
124.086937 0.084635 
125.023392 0.057353 
125.042458 0.105691 
125.059914 0.207087 
125.071121 0.247824 
125.096062 0.087393 
126.018723 4.958688 
126.054993 2.532167 
126.091385 0.489048 
127.038994 0.889667 
127.050308 12.398312 
127.086479 0.051331 
127.153358 0.028386 
128.034195 0.13234 
128.053268 0.140846 
128.070633 0.620142 
128.081543 0.047588 
128.106827 0.177885 
129.054459 0.14783 
129.102585 0.061016 
129.568268 0.06191 
130.065247 3.186302 
130.086441 0.179775 
131.049042 0.379894 
131.070404 6.371532 
131.085831 0.058005 
132.011398 0.424742 
132.044434 6.375293 
132.080902 0.309972 
133.047516 0.032045 
133.05246 0.280249 
133.064682 0.468435 
133.085953 6.626571 
133.101273 0.305229 
134.060089 9.462629 
134.096405 0.915526 
134.956238 0.289379 
134.996521 0.07327 
135.044159 0.318619 
135.063156 0.419515 
135.08049 0.153358 
135.116898 0.394592 
136.039413 0.43709 
136.06189 0.535546 
136.07579 2.175195 
136.112106 0.044673 
137.054489 0.046104 
137.059677 2.310428 
137.070908 0.0522 
137.0961 0.166717 
137.132797 0.104022 
138.055038 0.734123 
138.091461 0.566828 
139.050323 32.250599 
139.056351 0.318171 
139.075806 0.151798 
139.086807 0.328822 
139.111862 0.062018 
140.034042 0.090408 
140.053391 1.890724 
140.069672 0.498232 
140.139008 0.083343 
140.143784 0.042548 
141.028458 0.038438 
141.054703 0.114391 
141.065857 1.123623 
141.102646 0.035046 
142.086349 0.830022 
142.12265 0.073285 
143.04509 0.317972 
144.044495 10.723885 
144.065811 0.055823 
144.080994 0.663197 
144.1017 0.257774 
145.028625 0.047727 
145.048553 1.138017 
145.076614 0.050555 
145.084915 0.05486 
145.101974 0.053013 
146.053604 0.04604 
146.06012 8.624299 
147.044189 0.327443 
147.063995 0.492166 
147.080475 0.075746 
147.091614 2.466776 
147.11676 0.289443 
148.039215 0.733245 
148.06189 0.307915 
148.075607 2.279434 
148.112183 0.072883 
148.971878 0.377184 
149.04718 0.095952 
149.059799 0.507685 
149.071136 0.515772 
149.096039 0.058228 
149.107391 0.068397 
149.13208 0.040079 
150.055145 7.989051 
150.091431 1.92109 
150.951111 2.561845 
151.039001 0.176352 
151.057953 0.133788 
151.075378 1.106473 
151.086853 0.362092 
151.096863 0.48521 
151.112045 0.192517 
151.123062 10.03449 
152.034225 0.057541 
152.070694 2.813953 
152.107147 0.527189 
152.951675 0.187281 
152.967133 0.046846 
153.029938 0.412832 
153.036865 1.746698 
153.054626 0.059451 
153.065918 0.362387 
153.101471 0.048168 
153.940002 0.050212 
153.959625 0.114008 
154.0495 0.034592 
154.086304 0.468433 
154.122726 0.051667 
154.947021 0.118475 
155.045135 1.065845 
155.081421 0.132826 
155.117599 0.03466 
156.065811 0.035759 
156.094315 0.036786 
156.102036 0.721248 
157.042969 2.645104 
157.076401 0.125383 
158.060074 1.921505 
158.081573 0.033192 
158.092255 0.057557 
159.044083 0.151505 
159.091675 2.131105 
159.116074 0.053017 
160.03215 0.202383 
160.039413 15.922448 
160.075684 1.591669 
160.333542 0.031059 
161.042084 0.832508 
161.047989 0.10595 
161.05986 0.809765 
161.071136 0.318511 
161.132385 0.055281 
162.055069 8.899205 
162.078598 0.048764 
162.091415 8.723458 
162.951782 0.150983 
163.039215 0.138968 
163.058029 0.37711 
163.075211 0.666199 
163.086838 0.564294 
163.147995 0.070193 
164.034531 0.04705 
164.052826 0.045178 
164.058151 0.092405 
164.070587 2.393186 
164.093002 0.278656 
164.107224 1.514556 
165.05481 0.794032 
165.065933 1.888886 
165.091095 1.146695 
165.10257 0.917406 
166.031998 0.060279 
166.049744 0.263862 
166.086411 0.934606 
166.097397 0.306312 
166.122513 0.288457 
166.967163 0.040961 
167.045258 4.875359 
167.052979 0.063436 
167.081787 0.853361 
167.118027 0.100703 
168.053391 0.22189 
168.065567 0.87571 
168.102158 0.898753 
168.961853 1.228561 
169.060989 1.760745 
169.076218 1.317775 
169.097107 0.35089 
169.132996 0.060879 
170.080719 0.138667 
170.09671 0.11577 
170.506622 0.035734 
171.091843 1.026555 
172.039444 3.29722 
172.075836 0.379883 
172.09697 0.06024 
173.071091 0.31415 
174.055145 5.170688 
174.0784 0.208458 
174.091965 0.149341 
175.038376 0.043537 
175.058624 0.075833 
175.078201 0.06854 
175.086777 12.13438 
175.096573 5.843877 
175.119156 0.438866 
176.034561 0.455097 
176.070724 2.469629 
176.090591 1.183573 
176.107346 0.879054 
176.987503 0.043667 
177.042175 0.119489 
177.05571 0.365148 
177.066101 4.347908 
177.073883 0.13352 
177.09082 0.156367 
177.10231 1.034096 
177.112015 0.490817 
177.164352 0.06332 
178.031754 0.046307 
178.050018 14.75799 
178.059525 0.036978 
178.073868 0.96473 
178.086456 4.837316 
178.095047 0.166592 
178.12262 0.222585 
179.053146 0.975556 
179.070114 0.146748 
179.081207 0.300117 
179.089462 0.105451 
179.954285 0.682432 
180.014755 0.375504 
180.047714 0.264689 
180.065735 0.826838 
180.10202 2.522661 
180.11116 0.054916 
180.943893 0.190267 
181.061234 0.153199 
181.086823 0.032827 
181.09726 0.140578 
181.133453 0.309267 
182.063477 0.284464 
182.081512 0.259891 
182.117767 0.448939 
183.11319 0.141893 
184.063263 1.407928 
184.075577 0.557668 
184.096359 0.167231 
185.038116 3.512748 
185.071091 2.244059 
186.055115 0.412975 
186.078568 1.165225 
186.090988 0.419581 
186.112213 0.14762 
187.077072 0.085448 
187.086792 7.459757 
187.123749 0.053287 
187.148239 0.107482 
188.034485 0.300799 
188.057968 0.265328 
188.070816 2.056711 
188.090439 0.827537 
188.107162 0.13528 
189.054825 3.880285 
189.065781 1.242519 
189.092484 0.053982 
189.102249 0.727223 
189.993195 0.125718 
190.050049 2.900747 
190.058395 0.231719 
190.073837 0.144416 
190.08638 1.656735 
191.071121 0.376835 
191.081497 1.941994 
191.090714 0.063117 
192.011826 0.063025 
192.048004 0.371992 
192.065735 1.59919 
192.092957 0.049969 
192.101868 1.793442 
192.111725 0.046251 
192.961746 2.189756 
193.032135 0.077339 
193.051254 0.053403 
193.060883 2.367594 
193.097412 2.430363 
193.107269 0.524711 
194.026474 0.039755 
194.045074 0.560017 
194.08136 0.469606 
194.117722 2.689951 
194.146133 0.096644 
195.040955 0.061145 
195.076736 0.176031 
195.092087 0.466463 
195.113342 0.501551 
195.122711 2.107385 
195.149612 0.186116 
196.060684 1.529472 
196.075562 0.107414 
196.097122 0.676133 
196.108597 0.092543 
196.133667 0.284315 
197.071381 3.163827 
197.129028 0.17622 
197.139709 0.445565 
198.020676 0.066087 
198.075027 0.076211 
198.091522 0.655108 
198.102478 0.056085 
198.112656 2.241102 
199.02626 0.307105 
199.076981 0.051736 
199.08667 2.770869 
199.107986 0.032047 
200.058151 2.648864 
200.070526 0.381871 
200.091843 0.114276 
200.106735 0.159885 
201.033127 0.102424 
201.065994 2.094541 
201.100983 0.138353 
202.050156 1.44922 
202.073914 5.994429 
202.085541 0.844206 
202.109055 0.039709 
202.120956 0.049457 
203.021729 0.035365 
203.08168 59.936504 
204.066086 0.676144 
204.085724 6.371346 
204.101868 0.571336 
204.962418 0.423403 
205.05101 0.083586 
205.060791 3.13971 
205.097458 3.971657 
205.970093 2.225997 
206.045135 0.345529 
206.068741 0.317276 
206.081467 1.128877 
206.091568 0.155079 
206.102692 0.036417 
206.117325 0.252824 
206.977859 0.52869 
207.076401 2.716935 
207.113113 0.234269 
208.042847 0.482491 
208.060638 0.134713 
208.097076 0.325572 
208.133224 0.060104 
208.975189 0.339792 
209.081528 0.070097 
209.09166 0.54416 
209.128601 0.894244 
210.077087 0.100081 
210.087509 1.081182 
210.112442 0.194988 
210.972397 0.951769 
211.086533 0.133158 
211.144379 2.795819 
212.091873 0.713745 
212.10733 0.171733 
212.128311 2.868727 
213.066055 12.249713 
213.10228 0.159868 
213.123413 0.182075 
213.159821 2.170405 
214.074203 10.175329 
214.085785 0.647954 
214.107574 0.185442 
214.122986 0.059557 
214.165878 0.127268 
214.45932 1.320271 
214.46962 0.847976 
214.473236 0.777633 
215.081863 31.896172 
215.118073 0.039626 
216.053345 2.417834 
216.065201 0.333072 
216.085587 4.994114 
216.101532 0.457201 
216.123596 0.045765 
217.06076 1.778247 
217.086868 0.150156 
217.097321 3.992689 
217.942734 0.153954 
218.044968 0.048323 
218.068909 0.397332 
218.081467 0.420629 
218.092255 0.20896 
218.102432 0.071912 
218.117767 0.339046 
219.065643 0.490977 
219.076584 3.125681 
219.112473 0.102219 
219.123383 0.443204 
219.174561 1.052938 
220.042969 0.140349 
220.060318 0.04471 
220.084366 1.689853 
220.096695 0.338716 
220.108109 0.262938 
220.904007 0.271154 
221.056076 0.080732 
221.080933 9.591677 
221.092484 5.55394 
221.128571 0.193096 
222.084625 0.941787 
222.095932 0.107207 
222.112625 0.798057 
222.898895 0.889739 
223.072861 0.092471 
223.10791 0.839395 
223.144104 0.380038 
223.980545 5.20074 
224.038818 0.052323 
224.078781 0.134338 
224.106613 0.741618 
224.981827 0.347354 
225.066132 0.33299 
225.102081 0.061348 
225.160156 0.134998 
226.050858 0.043703 
226.084656 0.438536 
226.107422 0.120097 
226.12001 0.170031 
227.081467 2.386096 
227.117157 0.050665 
227.128601 0.062607 
227.140167 0.059829 
228.065536 0.080742 
228.086517 0.296141 
228.101837 0.661934 
229.060944 2.533673 
229.097198 0.295812 
230.069077 7.160079 
230.08136 0.460712 
230.117783 1.022383 
230.139038 0.045007 
231.076706 100.0 
231.895035 0.05358 
232.060745 0.104323 
232.081223 13.811868 
232.132904 0.300617 
233.055908 0.426252 
233.092422 15.832047 
234.044098 0.165691 
234.076187 0.108946 
234.099258 3.342924 
234.112106 0.1924 
234.972931 0.456432 
235.053406 0.385742 
235.071381 2.13496 
235.086426 0.846036 
235.107437 1.332332 
235.119476 0.082746 
236.023361 0.105447 
236.092056 0.141709 
236.129059 0.065473 
237.076065 0.563805 
237.087997 0.055893 
237.101517 0.044977 
237.160202 0.139646 
238.023499 0.248649 
238.084991 0.188358 
238.106796 0.036948 
238.119278 0.437858 
238.914124 0.43632 
239.044067 0.343661 
239.082779 0.253288 
240.086182 0.061421 
240.101608 0.314418 
240.123245 0.395135 
240.232254 0.112258 
240.90918 2.315769 
241.061203 0.87936 
241.085556 0.14116 
241.09816 0.132905 
241.991104 0.971808 
242.068726 4.134737 
242.080795 0.149204 
242.117889 0.993924 
243.076645 17.576355 
243.088364 0.503314 
244.060791 0.142823 
244.082809 3.959556 
244.096497 0.25205 
244.119247 0.10836 
244.132919 0.218622 
245.038269 0.792398 
245.055573 1.165164 
245.092422 2.909352 
245.104645 0.042702 
245.128326 0.451043 
245.149445 0.039323 
246.045547 0.154322 
246.098282 0.276451 
246.112473 0.719037 
246.13414 0.259913 
247.056168 0.044267 
247.071518 4.990931 
247.107285 0.201052 
247.14444 0.237367 
248.079254 4.538234 
248.091537 0.13524 
248.149612 1.173312 
249.070526 1.860288 
249.087051 17.215342 
249.101273 0.40963 
249.160599 0.140578 
249.907059 0.042675 
250.05336 1.142558 
250.072968 0.160882 
250.092926 2.106053 
250.107925 0.043019 
251.08493 7.953678 
251.101883 0.6466 
252.088135 1.060576 
252.101456 0.056239 
252.26564 0.105636 
253.063934 0.063721 
254.117401 0.334363 
254.889648 0.326722 
255.076202 0.081058 
255.11142 0.068358 
255.149155 0.746756 
255.899124 0.081088 
256.096283 0.123707 
256.131134 0.191431 
257.053925 0.045431 
257.091614 0.049232 
257.128937 0.079588 
258.062439 0.082456 
258.112213 0.359878 
259.055542 0.228944 
259.071625 20.525953 
259.106781 0.054307 
259.144287 0.136075 
260.078827 7.071725 
260.128204 1.431215 
261.053894 0.122687 
261.069733 3.176294 
261.087036 8.110766 
262.040833 0.779872 
262.071777 0.115574 
262.095032 3.811479 
263.049011 2.391784 
263.066345 0.700312 
263.085205 2.724236 
263.102631 4.067 
264.105835 0.165072 
264.909607 2.316833 
265.064911 0.088871 
265.083099 0.070609 
265.118744 1.208822 
265.882202 0.169312 
265.912262 0.046513 
266.117371 0.644425 
266.910034 1.084345 
267.079437 1.477364 
267.112671 0.285695 
268.095978 0.060989 
268.978607 0.170418 
269.000641 0.177738 
269.102875 0.065477 
269.128387 0.307728 
269.980225 0.06613 
270.112701 0.166859 
272.128326 0.672042 
273.070557 0.055306 
273.086853 1.038687 
274.107819 0.076265 
275.049072 0.092169 
275.06665 0.061761 
276.07373 0.141148 
276.123077 0.056681 
276.943054 0.040241 
277.06427 6.391628 
277.082062 3.392668 
278.033966 1.978272 
278.049866 0.063298 
278.069183 0.918649 
278.088165 0.280017 
278.138031 0.084874 
279.062225 0.23902 
279.079956 5.493014 
279.898407 0.917261 
280.082672 0.523896 
280.097656 0.087672 
280.132385 0.112119 
280.899078 0.040776 
281.057739 0.317655 
281.077087 0.35701 
281.096039 1.114622 
281.113556 6.768249 
281.128693 0.248653 
281.896881 0.23317 
281.912354 2.874978 
282.121063 2.565278 
282.920013 2.25815 
283.073395 0.044335 
283.108887 0.222949 
283.912842 1.483683 
284.12793 0.072228 
284.920258 1.767659 
285.01004 4.983156 
285.122589 0.124166 
286.010223 4.406489 
287.007507 2.703215 
288.122711 0.354969 
290.138428 0.312673 
291.043793 1.731586 
291.079346 0.622516 
291.097504 0.947216 
292.047791 1.904768 
292.105255 0.183067 
292.814056 0.535288 
293.058472 0.182685 
293.113251 0.102109 
293.161713 0.120815 
295.074554 1.193546 
295.145508 0.073912 
295.97818 0.263275 
296.044647 0.156307 
296.116425 0.045022 
296.128723 0.076755 
296.295166 0.139236 
296.974823 0.908079 
297.067291 0.324637 
297.089935 1.256795 
297.107544 0.125266 
297.123993 0.300037 
297.159058 0.426955 
297.908844 0.048975 
298.108032 0.247387 
299.106323 23.77059 
299.139038 1.577409 
299.924866 0.266291 
300.109283 3.117042 
300.159515 0.068861 
301.102142 0.187012 
303.022034 0.046055 
306.133209 0.069512 
307.075897 0.060077 
308.046143 0.225349 
309.032471 0.302435 
309.051178 0.47468 
309.071899 0.496925 
309.09079 0.478189 
309.107849 2.540005 
309.158813 0.075542 
309.181549 1.520428 
309.939362 0.061989 
310.095398 0.073519 
310.115631 4.688965 
310.184296 0.181636 
310.824799 0.039431 
311.069946 0.116694 
311.10379 0.100507 
311.121124 0.362555 
311.140167 0.226454 
311.157837 0.071527 
311.176117 0.364644 
311.196167 0.280014 
312.20697 0.057836 
313.154358 0.14035 
314.035431 0.039485 
314.126465 0.106282 
314.985901 0.066368 
315.843658 0.36184 
316.813873 0.072802 
317.044952 2.652125 
317.841339 4.492767 
319.165649 0.740331 
320.111725 0.224232 
320.129852 0.074679 
320.148987 0.226612 
321.156128 0.050961 
321.181335 0.566217 
322.128021 0.278026 
323.139587 0.198196 
323.175079 0.242405 
323.233398 1.311137 
323.832458 1.824887 
324.143616 1.13709 
324.236237 0.064737 
324.987854 0.159688 
325.118561 0.944166 
325.152649 0.368577 
325.211945 0.069363 
325.832397 0.185659 
326.15799 0.068775 
326.334595 0.054183 
326.839355 0.096201 
327.100952 1.227062 
327.134705 0.192719 
327.170776 0.149908 
328.15332 0.08493 
329.080872 0.037946 
329.11676 2.847406 
330.120972 0.03778 
330.984863 0.149969 
332.847931 0.041448 
333.856262 0.038151 
334.319336 0.101452 
334.824799 0.593638 
334.84375 3.634858 
335.055695 0.902606 
335.829651 0.045119 
335.851593 2.716109 
337.118896 0.159048 
337.152496 0.425669 
338.101471 0.087411 
338.121765 3.68441 
338.159607 1.873336 
338.19574 0.109856 
339.133514 1.247376 
339.167542 0.749054 
340.118286 0.520644 
340.138641 1.312257 
340.158234 0.100983 
340.175659 1.314638 
340.357971 1.443482 
341.149658 0.721391 
341.185577 2.449589 
342.19751 0.042598 
342.998108 0.691464 
343.205231 0.039873 
344.976898 3.349591 
347.833282 0.152167 
348.502228 0.092919 
350.947815 0.066926 
352.855591 0.30279 
355.128174 0.416098 
355.165924 5.283519 
355.184021 0.451468 
355.203583 1.506229 
355.260071 1.088813 
355.281647 3.55866 
356.110107 0.856728 
356.149109 6.299561 
356.170227 7.579684 
356.197815 3.004943 
356.221893 0.189361 
356.262787 0.213512 
356.284912 1.120607 
356.352539 0.78916 
356.848572 0.046573 
357.012421 0.123795 
357.091339 0.148672 
357.117035 0.049488 
357.144806 6.147676 
357.180756 15.457259 
357.220215 1.111176 
357.260254 10.687546 
358.12674 1.886086 
358.148773 1.772781 
358.179199 8.430522 
358.228943 43.702477 
358.264832 1.671064 
358.368042 24.967922 
358.84433 4.615072 
359.029053 0.47322 
359.127716 0.156027 
359.158905 3.154465 
359.197418 6.869023 
359.232117 6.123006 
359.371521 1.304483 
364.835358 1.441324 
365.842133 0.89011 
366.843964 0.038365 
367.841736 2.855592 
374.855347 0.210053 
376.854919 1.525626 
383.853729 0.551003 
384.856323 0.090868 
END IONS

