BEGIN IONS
PEPMASS=320.126
CHARGE=1+
COMPOUNDNAME=Isocycloheximide
LIBRARYQUALITY=3
SMILES=N/A
INCHIKEY=YPHMISFOHDHNIV-UHFFFAOYSA-N
INCHI=InChI=1S/C15H23NO4/c1-8-3-9(2)15(20)11(4-8)12(17)5-10-6-13(18)16-14(19)7-10/h8-12,17H,3-7H2,1-2H3,(H,16,18,19)
MSLEVEL=2
SOURCE_INSTRUMENT=N/A-ESI-QFT
FILENAME=library_mgf.mgf
SEQ=*..*
IONMODE=positive
ORGANISM=MONA
NAME=Isocycloheximide [M+K]+
PI=MoNA
DATACOLLECTOR=MoNA:VF-NPL-QEHF023909
PUBMED=N/A
SUBMITUSER=mwang87
TAGS=
SPECTRUMID=CCMSLIB00004714972
SCANS=23909
50.329216 0.199944 
50.880215 0.353232 
51.583797 0.266579 
51.94035 0.383985 
52.242203 0.053934 
53.039009 0.124093 
54.129913 0.265696 
54.964809 0.168722 
55.018181 0.951942 
55.054588 3.24538 
55.934738 0.505327 
56.049805 1.31768 
56.19017 0.04461 
56.965111 0.955583 
57.03381 0.355513 
57.070206 3.746708 
57.449554 0.04422 
57.935146 0.237949 
58.053127 0.163934 
58.065399 0.229858 
58.511456 0.36105 
58.974781 0.046897 
58.995258 0.055483 
59.049484 0.301781 
59.156761 0.056176 
59.93047 0.138274 
60.044682 0.304429 
60.059055 0.262579 
60.254066 0.301003 
60.761703 0.270883 
61.010918 100.0 
61.077507 0.338154 
61.17448 0.279641 
61.704292 0.041794 
62.010231 0.118625 
62.014233 0.901661 
62.015842 0.04249 
62.018734 1.766008 
62.10384 0.042341 
62.215675 0.043054 
62.990154 0.085201 
63.006687 1.165647 
63.192104 0.255402 
63.945461 0.258388 
64.091995 0.040943 
64.470825 0.325882 
64.806328 0.04241 
65.013969 0.201538 
65.039223 0.252425 
65.537239 0.189186 
65.737312 0.043594 
66.438004 0.19646 
66.745255 0.15335 
67.054413 6.383254 
67.083595 0.207158 
67.377724 0.198094 
67.533249 0.042245 
67.934952 0.068134 
67.968704 0.076344 
68.04966 0.31581 
68.057762 0.110391 
68.751617 0.33535 
68.942886 0.274078 
69.03363 1.658595 
69.070015 4.81781 
69.666595 0.164253 
70.028893 0.038851 
70.065262 4.413314 
70.941902 0.071426 
70.957901 0.539689 
71.049255 1.343735 
71.068588 0.04915 
71.085609 0.996744 
71.929337 0.172485 
72.080856 0.478117 
72.937218 6.160219 
73.028587 0.061932 
73.574913 0.044504 
74.316246 0.26005 
74.637573 0.339949 
75.026466 0.183242 
75.044235 0.241342 
77.396393 0.04253 
77.681961 0.045814 
78.013489 0.592241 
78.070496 0.042253 
78.967171 1.419745 
78.985008 0.057791 
79.021317 10.05532 
79.054367 1.918796 
80.049538 1.558858 
81.017029 0.066075 
81.033577 0.457455 
81.044975 0.06282 
81.069962 7.940869 
81.100159 0.250648 
82.065308 1.27162 
83.049248 0.753658 
83.073013 0.275111 
83.085602 2.180225 
83.116295 0.093316 
83.119614 0.216916 
84.044472 1.092022 
84.080864 27.454477 
84.937752 3.904639 
85.028534 0.523012 
85.039711 1.743767 
85.064896 0.87966 
85.084213 1.71112 
85.101265 0.058953 
86.032021 0.340836 
86.060127 0.045329 
86.096558 0.696424 
87.014626 0.274925 
87.044128 0.136601 
88.107742 0.043276 
88.669937 0.040001 
88.952484 0.276091 
88.968643 0.085363 
89.059776 1.333273 
89.939987 0.109169 
89.951111 0.043439 
90.9478 3.175855 
91.020912 0.038016 
91.054337 2.8936 
91.527924 0.289734 
91.877853 0.074194 
92.05751 0.055349 
92.301498 0.060175 
92.982819 2.752864 
93.069992 4.151308 
94.065269 0.221826 
95.012833 0.917383 
95.049232 1.747339 
95.085571 8.358244 
95.273849 0.170866 
96.044487 6.999477 
96.080933 0.585394 
96.088844 0.133163 
96.500961 0.049331 
97.028473 1.635283 
97.047485 0.053252 
97.06498 0.793593 
97.101349 0.764096 
98.060249 0.414201 
99.044205 2.21481 
99.055206 0.219428 
99.080566 1.696853 
100.075798 1.539144 
100.556442 0.066342 
101.059868 0.189297 
102.0914 3.073088 
102.1278 0.057231 
102.948242 8.163985 
102.988953 0.171242 
103.202995 0.264818 
103.948456 0.537773 
104.526138 0.288758 
104.913773 0.092487 
104.946732 0.043708 
104.963326 0.076347 
105.033707 0.211095 
105.066528 0.118057 
105.069977 3.877895 
106.065132 0.103867 
106.073128 0.052592 
106.926109 0.047314 
106.998474 0.181817 
107.049271 1.308662 
107.085648 6.085651 
107.725266 0.320994 
108.044495 1.333277 
108.080872 0.170387 
108.482185 0.062539 
108.958473 0.518063 
109.028496 0.066079 
109.06498 1.445672 
109.076385 0.265048 
109.101318 3.952676 
110.060173 1.368162 
111.044182 0.605886 
111.055054 0.048624 
111.080521 0.541771 
111.232948 0.298243 
112.039383 3.612983 
112.075752 5.005312 
113.023796 0.095349 
113.04245 0.115379 
113.059868 0.506575 
113.901573 0.159004 
114.055176 0.094126 
114.091423 5.442945 
114.948372 0.647012 
115.039375 0.049619 
115.851501 0.045469 
116.963745 1.00622 
117.069923 0.601555 
118.065071 0.147787 
118.943207 0.71579 
119.048744 0.054287 
119.085686 3.141237 
119.184334 0.042651 
119.943481 0.127492 
119.951111 0.556074 
119.956161 0.044647 
120.02861 0.06284 
120.044357 0.068471 
120.081055 0.153658 
120.940506 0.201298 
120.951393 0.05951 
120.9589 1.413339 
121.028458 0.341915 
121.064987 1.600463 
121.101318 2.342862 
121.959045 0.063664 
122.060135 0.262428 
122.068283 0.052285 
122.989761 0.058379 
123.044373 0.186788 
123.080444 2.452121 
123.116852 0.613832 
124.03907 0.078416 
124.075989 0.592088 
125.059845 0.204454 
125.071182 0.180803 
125.096199 0.456251 
125.961159 0.075439 
126.055115 1.078582 
126.108284 0.425552 
127.006416 0.095942 
127.038963 0.772603 
128.070816 0.232824 
128.107376 0.099665 
128.96376 2.007971 
129.069778 0.163496 
130.065201 0.074388 
130.524002 0.250904 
130.979416 1.251267 
131.085648 1.497702 
131.090683 0.070817 
131.905746 0.092531 
131.950867 1.530785 
132.044739 0.059064 
132.081207 0.047972 
132.951965 0.240778 
132.961105 9.691138 
133.06488 0.454409 
133.101257 2.008401 
133.308334 0.201295 
133.959274 29.055336 
134.012344 0.140159 
134.060394 0.150477 
134.096481 0.100239 
134.10498 0.056062 
134.919464 0.054932 
134.956223 6.252093 
134.973984 0.190351 
135.044006 0.185565 
135.055313 11.181071 
135.080475 1.721267 
135.116791 0.626653 
135.927368 0.144578 
136.039673 0.162932 
136.058655 0.158697 
136.075974 0.16465 
136.111908 0.104188 
136.953476 0.154349 
137.011917 0.1189 
137.059677 0.177187 
137.096191 0.653642 
137.954498 0.048204 
138.055038 0.343176 
138.091812 0.046908 
138.127899 0.073157 
138.951218 0.17719 
139.075607 0.117143 
139.087082 0.06096 
139.111298 0.04323 
140.034256 0.058971 
140.070892 0.097514 
140.824722 0.139961 
142.078049 0.23177 
142.086426 0.239075 
142.979034 2.534845 
143.08577 1.4065 
143.492035 0.310923 
143.95134 0.054461 
144.044556 0.492249 
144.958664 0.139091 
144.97995 0.045466 
144.99498 0.065257 
145.064911 1.877833 
145.101273 1.270664 
146.060135 0.559183 
146.974442 12.329461 
147.044052 0.17277 
147.080521 0.84961 
147.116821 0.443109 
147.974869 1.223037 
148.039597 0.291579 
148.076004 0.540433 
148.112061 0.058769 
148.780777 0.336422 
148.95578 16.028896 
148.971924 2.560381 
148.989975 0.324128 
149.059967 0.369123 
149.09639 0.675848 
149.132782 0.202001 
149.947754 0.075427 
149.954285 17.490446 
149.972076 0.119329 
150.055176 0.334026 
150.091537 0.069634 
150.951157 36.048378 
150.971497 3.829201 
150.984909 0.047392 
151.05867 0.067742 
151.07576 0.079334 
151.112015 0.057162 
151.951462 0.0729 
151.969955 4.17211 
152.001358 0.070565 
152.070892 0.372778 
152.951828 0.258811 
152.966858 2.178817 
152.989456 0.195274 
153.054611 0.054469 
153.95929 0.12227 
154.050079 0.544554 
154.076385 0.282854 
154.947266 0.188195 
154.979584 0.058598 
155.070236 0.049405 
155.08551 0.320811 
156.09375 0.055511 
156.995041 0.156748 
157.101227 3.642383 
157.989655 0.051038 
158.060547 0.329947 
158.096786 0.148925 
158.104126 0.07594 
158.974335 0.180209 
159.011749 0.044668 
159.080627 2.111147 
159.116928 2.280413 
160.02829 0.299141 
160.075928 1.123293 
160.112274 0.122347 
160.120148 0.070021 
160.9422 0.119309 
160.972 0.184203 
160.990082 0.982223 
161.060043 0.378749 
161.071884 0.0583 
161.096054 0.772535 
161.132401 0.2265 
161.961639 0.138032 
162.055084 1.416667 
162.067505 0.288453 
162.09166 0.315184 
162.941437 0.117567 
162.971497 14.485522 
163.005569 0.105885 
163.027863 0.052319 
163.07547 0.947006 
163.11203 0.094 
163.148209 0.094 
163.943985 0.104522 
163.969772 9.409971 
163.976761 0.082312 
164.016647 0.094219 
164.034393 0.128454 
164.070679 0.13467 
164.107178 0.156037 
164.143295 0.06557 
164.912918 0.345511 
164.966827 0.262876 
164.986435 0.067384 
165.000107 0.048915 
165.054657 0.086224 
165.090637 0.075842 
166.050232 0.111415 
166.086472 0.230001 
166.122681 0.100839 
166.158951 0.265855 
166.928482 0.902931 
166.966431 4.698799 
166.980927 0.097938 
166.982758 0.099985 
167.081512 1.050622 
167.956665 0.062387 
167.96492 5.246239 
167.974274 2.66728 
168.065689 0.607892 
168.907623 0.40602 
168.961868 12.644426 
168.994675 0.050437 
169.016098 0.074903 
169.065506 0.062006 
169.101166 0.437521 
169.962051 0.062248 
170.012558 0.211121 
170.061752 0.089205 
170.096161 0.07825 
170.941055 0.353642 
170.963303 0.752356 
171.080475 1.659977 
171.116867 0.465253 
171.137527 0.059649 
172.005035 0.062686 
172.075516 0.089315 
172.112457 0.070086 
172.989822 0.131871 
173.026596 0.04861 
173.059647 0.138925 
173.096359 2.450564 
173.132553 0.722162 
174.055176 0.192923 
174.091492 1.901739 
175.075577 0.608101 
175.086838 1.418932 
175.111969 0.886736 
175.505875 0.292563 
176.034225 0.234202 
176.070786 0.263523 
176.107285 0.160942 
176.984848 0.061137 
177.042236 0.237688 
177.054581 0.489673 
177.091141 0.360153 
177.102127 0.085768 
177.127808 0.362466 
177.7845 0.431323 
177.994034 0.102415 
178.050125 0.172346 
178.086288 0.081237 
178.948181 0.170897 
178.982788 0.055961 
180.011627 0.177211 
180.029144 0.060695 
180.065994 0.066591 
180.888458 0.119661 
180.925964 1.593561 
180.943939 2.845673 
180.982132 18.70204 
181.101471 0.090485 
181.751999 0.094002 
181.980392 16.423643 
181.988632 0.396774 
181.995789 0.063917 
182.026978 0.073472 
182.596985 0.176196 
182.880676 0.411758 
182.923615 0.151786 
182.941895 0.515384 
182.977386 0.452133 
182.995544 0.067734 
183.010895 0.075822 
183.080643 0.672602 
183.116943 0.300403 
183.931351 0.154685 
183.969345 0.836976 
184.005875 0.344582 
184.060455 0.121427 
184.07637 0.188758 
184.93924 1.464957 
184.990158 0.200812 
185.026733 0.049386 
185.096176 6.839025 
185.132339 0.055927 
185.939362 0.142019 
185.964417 0.053222 
185.984909 4.704545 
186.006378 0.191553 
186.09166 0.618199 
186.936096 0.469464 
186.969116 1.384436 
187.006165 0.248027 
187.075607 1.617115 
187.086014 0.0882 
187.111938 2.708023 
187.147873 0.060833 
187.938965 0.293975 
188.022903 0.0585 
188.070786 0.730697 
188.083572 0.105141 
188.107056 0.778806 
188.115723 0.087433 
188.974335 0.631164 
189.00592 0.465754 
189.055222 0.179008 
189.091171 2.930307 
189.101044 0.15074 
189.127945 0.091844 
190.032501 0.055203 
190.049942 0.224604 
190.086411 0.383652 
190.873123 1.280267 
191.001434 0.227791 
191.117737 0.407446 
191.14328 0.391581 
191.880798 6.2516 
192.011551 1.094312 
192.029068 0.131246 
192.065475 0.191051 
192.880508 0.125988 
192.889404 0.272363 
192.961975 0.309776 
194.027512 0.054004 
194.045242 0.083289 
194.081619 0.108222 
194.100204 1.554568 
194.943878 1.391169 
195.065811 0.071767 
196.939316 0.175154 
196.959412 0.469786 
197.01181 0.185453 
197.096313 0.386769 
197.297104 0.307053 
197.892654 0.313076 
198.091248 0.5976 
198.900497 2.102301 
198.936722 0.502876 
198.954666 2.300073 
199.00589 0.124272 
199.075485 2.657708 
199.111938 1.161243 
199.132797 0.065557 
199.94458 0.190623 
199.954941 0.360386 
200.069855 0.551905 
200.107391 0.912237 
200.879791 0.09007 
200.951996 1.058473 
200.984222 0.207332 
201.091354 2.597808 
201.101273 0.084532 
201.111938 0.134404 
201.127258 0.90866 
201.916153 0.211804 
201.97995 0.559828 
202.050385 0.141532 
202.086411 1.449297 
202.123001 1.364523 
202.982574 1.557651 
203.053421 1.113379 
203.070709 0.390825 
203.106918 2.970229 
204.029327 0.443225 
204.065887 0.614783 
204.101654 0.161342 
204.139053 0.089466 
204.889206 0.057318 
205.086227 0.377992 
205.122543 0.425046 
206.081741 0.550073 
206.117615 0.41642 
206.867996 0.171453 
207.148911 0.157122 
207.876129 0.225201 
208.06105 0.307722 
208.883682 10.129795 
209.01091 0.069805 
209.165207 0.640165 
209.500473 0.285073 
209.891891 10.723791 
209.985245 2.982778 
210.022522 0.058438 
210.091431 0.268763 
210.891388 0.458982 
210.900894 0.235392 
210.972641 0.059626 
211.075577 0.165144 
212.023148 0.427662 
212.071411 0.100079 
212.106888 0.05436 
212.916565 0.081023 
212.934326 0.071107 
213.090988 1.269694 
213.102417 0.06718 
213.906219 0.103744 
214.086563 2.40583 
214.123199 0.100397 
214.878021 8.708497 
214.894211 0.079432 
215.036392 0.119212 
215.07048 1.195559 
215.107101 1.517035 
215.117737 0.076263 
215.902695 0.19189 
216.066238 0.072035 
216.078232 0.104948 
216.102203 3.813595 
216.138092 0.524224 
216.911484 0.182726 
216.950195 0.104671 
217.068558 0.249147 
217.086166 0.554837 
217.122559 0.717916 
217.954453 0.19314 
217.965424 0.069711 
218.081451 0.508878 
218.11795 0.337201 
218.154343 0.097654 
218.904434 1.924008 
219.102173 0.525439 
219.138245 0.122108 
219.149155 0.050457 
219.174484 0.38302 
220.041687 0.197719 
220.097061 0.147548 
220.884567 0.064963 
220.903336 1.354113 
221.011673 0.054255 
222.02179 0.079028 
222.898788 9.524659 
224.001099 0.183093 
224.878723 1.028579 
224.902191 0.248304 
224.99411 0.047144 
225.02124 0.176118 
225.886856 0.575641 
225.90596 0.111933 
225.92598 0.083 
226.086533 0.573935 
226.123276 0.12642 
226.89476 1.600118 
227.070663 1.68331 
227.106598 0.168707 
227.838715 0.354107 
227.901505 0.94608 
227.921509 1.746772 
227.995621 9.3099 
228.10202 1.42688 
228.13884 0.106831 
228.894699 0.066279 
229.086288 1.147252 
229.097656 0.219968 
229.122589 0.781278 
229.89621 7.146013 
229.920959 0.889279 
230.034027 1.850658 
230.081604 0.270087 
230.117828 0.747378 
230.137207 0.161724 
230.9189 0.574346 
230.944565 0.149148 
231.077042 0.067726 
231.101761 1.507278 
231.11348 0.705358 
231.915909 0.40085 
231.927063 0.32978 
232.096725 0.076995 
232.133759 0.256529 
232.883591 4.146051 
233.093292 0.053379 
233.117142 0.07812 
233.892075 1.308299 
233.931747 0.077891 
234.113663 0.082792 
234.148682 0.054624 
234.89946 7.54366 
235.900574 0.168598 
236.899353 0.074599 
236.915054 0.07199 
237.887512 0.480854 
238.016861 0.212269 
238.895523 0.078758 
238.914246 3.566936 
239.036346 0.113887 
239.070618 0.113374 
239.913483 0.069281 
240.10228 0.391927 
240.909332 14.855262 
240.929199 0.906796 
240.949509 0.385542 
241.051727 0.067243 
241.086258 1.333012 
241.911407 0.077167 
241.955414 0.203411 
242.06897 0.056858 
242.081757 0.345559 
242.105316 1.019303 
242.118454 0.240861 
242.910721 0.66778 
242.944366 15.805999 
243.069229 0.397443 
243.089783 0.083709 
243.101425 0.382935 
243.114044 0.409514 
243.916229 1.522882 
243.935715 0.211357 
243.94838 0.078974 
244.097305 0.504938 
244.133392 0.393752 
244.921921 0.154638 
244.93512 1.276851 
244.996796 2.548122 
245.009293 0.763386 
245.08049 0.085954 
245.116821 0.423908 
245.911285 0.807426 
245.93161 15.709397 
246.006302 9.465728 
246.112808 0.489477 
246.149033 0.181253 
246.898178 0.077245 
246.994934 0.098292 
247.00914 0.436858 
247.096664 2.313061 
247.133224 0.691545 
247.906738 5.536036 
248.128418 0.306577 
248.878479 1.053682 
250.880463 0.091667 
250.894196 15.271043 
251.894714 1.20486 
252.894058 0.115981 
252.909897 0.052012 
253.902695 1.419491 
253.917114 0.144672 
254.903473 0.092152 
255.897949 1.198641 
255.919373 0.143149 
256.097046 0.115558 
256.942139 0.201834 
257.896118 0.603245 
257.912811 0.062661 
257.988953 0.209131 
258.113098 1.335108 
258.86615 0.143245 
258.899414 0.466732 
258.939728 4.13576 
258.959381 1.811594 
259.096252 0.430391 
259.144257 0.069133 
259.943176 0.07051 
259.958252 5.310414 
260.058838 0.142616 
260.092133 0.251985 
260.128174 2.022157 
260.903717 0.135332 
260.920441 0.359321 
260.940308 0.948222 
260.954956 45.143513 
261.043243 0.063007 
261.112457 0.670895 
261.132782 0.060121 
261.886841 0.060126 
261.920258 1.56243 
261.937622 0.53994 
261.956635 1.654539 
262.10675 0.095518 
262.144379 0.999491 
262.820435 0.049237 
262.914062 0.80001 
262.930756 0.065742 
262.944763 0.249664 
263.007477 0.166248 
263.176483 0.201406 
263.942627 0.559358 
263.963043 0.321509 
264.016785 5.459272 
264.909485 6.821117 
265.017578 0.083782 
266.150696 0.066956 
266.889374 0.606249 
268.904999 1.737272 
269.905853 0.052321 
271.071442 0.327323 
271.096954 1.123403 
272.128693 0.284231 
272.937317 0.104183 
273.097656 0.112686 
274.126648 0.97438 
274.894897 0.235803 
274.970459 0.064147 
275.007385 0.814136 
275.103119 0.559211 
275.903015 0.517853 
276.000549 0.116718 
276.12854 0.068778 
276.15979 0.074497 
276.876343 4.307702 
276.910217 1.753492 
277.144318 0.062944 
277.876434 0.056357 
277.904114 0.420927 
277.921844 2.18765 
277.969574 0.409152 
278.10791 0.088219 
278.902161 0.163575 
278.92865 0.256541 
278.965271 0.135489 
279.002899 0.051564 
279.806366 0.058794 
279.897919 1.363755 
279.917725 0.404821 
280.813599 0.83922 
280.898865 0.05262 
280.924835 0.392627 
281.897339 0.279165 
281.91214 0.072822 
282.919769 3.998676 
285.815643 0.071068 
286.127106 0.718569 
286.143219 0.062552 
287.103394 0.351587 
287.832672 0.059372 
288.123474 0.696615 
288.783478 0.390447 
288.8396 0.058016 
288.909607 0.165158 
288.932861 0.087485 
289.081635 0.140765 
289.118744 0.149862 
289.154419 0.070006 
293.018982 0.061112 
294.136749 0.048763 
295.12204 0.124916 
295.929321 0.262573 
296.808685 0.265158 
296.913361 0.051907 
297.816589 1.177177 
297.908722 0.590802 
301.071564 0.115486 
302.211029 0.074299 
302.248047 0.813635 
302.818878 0.857556 
306.009613 0.991718 
306.066833 0.2967 
306.920105 2.016316 
312.839111 4.730663 
313.481812 0.238508 
313.841125 0.091261 
315.827271 0.062885 
318.167877 25.900454 
318.279724 0.236129 
319.133362 1.998834 
319.15152 18.619392 
319.171783 14.778162 
319.202881 0.08351 
319.275177 0.312996 
320.116821 0.071564 
320.155396 2.707226 
320.176483 0.50517 
320.259674 0.096644 
320.295715 0.219189 
321.090424 0.169 
322.238129 0.062876 
324.930511 0.224823 
326.818481 0.351705 
327.826141 1.459007 
338.128418 0.773837 
341.113861 0.238008 
344.829163 2.015132 
END IONS

