BEGIN IONS
PEPMASS=357.117
CHARGE=1+
COMPOUNDNAME=MITOMYCIN C
LIBRARYQUALITY=3
SMILES=N/A
INCHIKEY=NWIBSHFKIJFRCO-WUDYKRTCSA-N
INCHI=InChI=1S/C15H18N4O5/c1-5-9(16)12(21)8-6(4-24-14(17)22)15(23-2)13-7(18-13)3-19(15)10(8)11(5)20/h6-7,13,18H,3-4,16H2,1-2H3,(H2,17,22)/t6-,7+,13+,15-/m1/s1
MSLEVEL=2
SOURCE_INSTRUMENT=N/A-ESI-QFT
FILENAME=library_mgf.mgf
SEQ=*..*
IONMODE=positive
ORGANISM=MONA
NAME=MITOMYCIN C [M+Na]+
PI=MoNA
DATACOLLECTOR=MoNA:VF-NPL-QEHF027732
PUBMED=N/A
SUBMITUSER=mwang87
TAGS=
SPECTRUMID=CCMSLIB00004721313
SCANS=27732
50.28989 0.03912 
50.369598 0.095042 
50.752838 0.040315 
50.950401 0.179251 
51.078739 0.040315 
51.48925 0.046708 
51.740562 0.095886 
51.826752 0.151081 
52.206825 0.095378 
52.860657 0.169859 
52.898998 0.036381 
53.318245 0.187383 
53.704029 0.161657 
54.03426 0.156514 
54.057617 0.046533 
54.283203 0.046225 
54.853851 0.185328 
56.049793 1.485564 
56.338257 0.080659 
56.588207 0.171156 
56.705654 0.091523 
56.812168 0.156145 
56.954075 0.176383 
56.965172 0.107864 
58.978718 0.160921 
59.049541 0.056711 
59.170055 0.087896 
59.449921 0.158402 
59.712837 0.044719 
60.044655 0.334151 
61.935169 0.105581 
62.264278 0.040024 
62.973347 0.070304 
63.133278 0.038905 
63.543659 0.176229 
63.892483 0.186925 
64.340477 0.073896 
64.508789 0.198813 
64.728371 0.1431 
65.474174 0.086364 
66.308815 0.195238 
66.407135 0.053455 
66.499626 0.142257 
67.877998 0.071197 
67.969742 0.19654 
68.02037 0.177622 
68.031364 0.05284 
68.04969 0.104806 
70.984108 0.17833 
71.576797 0.153773 
72.663208 0.2019 
72.981911 0.168575 
73.046867 0.168546 
73.59697 0.130074 
74.278259 0.038032 
75.065018 0.208098 
78.213814 0.090599 
78.42627 0.185959 
79.142738 0.157353 
79.237984 0.076769 
79.908409 0.038487 
80.049614 0.116883 
81.005814 0.07401 
81.167702 0.201233 
82.028778 0.177987 
82.065102 0.045911 
83.012825 0.044895 
83.479401 0.096802 
83.631538 0.091966 
84.005608 0.182591 
84.044525 0.17939 
85.408737 0.137787 
85.467896 0.184096 
86.365082 0.260442 
86.922821 0.115155 
87.044106 0.089873 
87.804916 0.217951 
88.434372 0.208447 
89.314247 0.103725 
89.835045 0.169552 
91.539902 0.146818 
92.964806 0.041636 
93.057686 0.181693 
93.968018 0.185306 
95.149864 0.035369 
95.394981 0.148409 
95.630547 0.053398 
96.044395 4.664487 
97.782669 0.050384 
98.060204 0.168567 
98.975456 0.602747 
99.387329 0.324642 
100.141891 0.166729 
100.288033 0.12887 
100.424629 0.039466 
100.788109 0.152064 
102.141281 0.204034 
102.55397 0.114632 
104.049423 0.401507 
104.092224 0.097265 
105.057854 0.052356 
105.179443 0.184413 
105.314087 0.116656 
105.58313 0.26331 
106.065262 0.058843 
107.799614 0.173351 
108.178345 0.233996 
110.000008 0.108875 
110.060089 13.148172 
110.328575 0.102568 
110.780449 0.050155 
110.815529 0.158199 
111.563957 0.122018 
112.383156 0.194764 
114.624954 0.090796 
114.767601 0.186289 
115.084496 0.10173 
118.052803 0.181621 
118.065063 0.446755 
119.337746 0.216278 
119.475121 0.171052 
120.044975 0.051227 
122.059959 0.126861 
124.401047 0.182079 
125.591339 0.044189 
126.913177 0.076266 
129.742523 0.038943 
130.065201 1.262352 
131.060471 6.416911 
131.097733 0.089925 
132.044449 3.240057 
132.068268 10.251448 
132.080902 0.356538 
132.288055 0.100585 
133.076111 3.572586 
133.512924 0.179674 
134.059967 1.785097 
135.055359 0.231921 
135.110703 0.099312 
135.42691 0.048219 
136.087601 0.183727 
137.071014 14.411596 
137.707016 0.137954 
137.745987 0.19641 
138.073944 0.12044 
138.770584 0.037666 
141.355988 0.070612 
142.065231 0.692489 
143.459763 0.102489 
144.044632 0.164141 
144.080917 2.52161 
145.07608 2.336347 
146.060104 0.865348 
146.08371 0.101347 
146.659363 0.184079 
147.055237 0.262375 
148.075699 0.580752 
148.71875 0.076614 
149.071045 1.944017 
151.677155 0.049303 
156.068161 1.886189 
157.076065 1.79292 
158.06015 0.40718 
158.713821 0.049242 
158.847504 0.224333 
159.055374 17.00424 
159.091599 3.338003 
160.002914 0.043789 
160.063766 0.123798 
160.07515 0.315002 
161.070816 3.07818 
161.259705 0.14163 
162.025894 0.074599 
162.054871 0.644978 
162.570175 0.247264 
166.942993 0.127744 
167.014694 0.186144 
167.478149 0.045974 
168.068329 0.060386 
169.07608 14.156536 
169.414978 0.044012 
170.060226 0.16877 
170.084106 0.805007 
171.079117 1.103528 
171.091736 12.779993 
171.156769 0.192534 
171.301147 0.093687 
171.92804 0.103154 
172.062927 0.596381 
172.094589 0.060402 
173.071014 6.38647 
173.707336 0.226378 
174.078934 2.241485 
175.06279 4.595022 
175.086792 3.447009 
175.312149 0.05876 
176.057968 0.371063 
176.070694 0.513484 
177.065826 0.321086 
179.582825 0.097641 
179.620529 0.040989 
183.079208 0.10106 
184.075775 0.816928 
184.317596 0.109938 
185.070923 16.682985 
186.055435 0.240149 
186.065964 0.469291 
186.078781 0.188249 
186.102722 1.117504 
187.050125 0.171448 
187.086533 10.096332 
188.058151 2.624324 
188.070572 1.386924 
189.065872 6.757731 
190.073608 0.447664 
190.809036 0.096808 
191.046005 0.220473 
191.081589 0.382523 
193.14682 0.172579 
196.086853 0.897414 
197.071075 14.7891 
198.066483 0.126732 
198.078659 2.229172 
198.102661 0.585417 
199.0495 0.064064 
199.07399 4.891953 
199.086166 0.197584 
199.476898 0.049992 
199.849533 0.11123 
200.058197 0.577269 
200.082169 0.14908 
201.065948 2.13828 
202.0737 44.397957 
202.704941 0.04731 
203.079086 2.602624 
203.868088 0.168676 
203.972321 0.120214 
204.053284 2.079378 
204.065552 1.997784 
205.060898 0.941311 
206.068527 5.766606 
208.338623 0.102434 
209.001862 0.103598 
210.957703 0.048655 
211.797882 0.108701 
212.070465 0.516894 
213.065887 8.246998 
213.089615 2.132701 
214.073624 7.818726 
214.09758 21.186728 
215.070999 0.595715 
215.08165 46.839863 
215.100174 1.551633 
216.052963 0.456803 
216.076233 2.118374 
216.086197 2.269945 
217.061096 2.326311 
217.283585 0.045604 
218.068283 1.413684 
219.076477 5.196411 
219.726959 0.220527 
219.850021 1.090248 
219.858734 1.329486 
223.868317 0.054513 
225.065918 3.448444 
225.101624 0.051787 
225.346527 0.205065 
226.073517 3.800176 
227.069061 1.342884 
227.081451 1.720807 
227.117767 0.073738 
228.076538 0.554677 
229.06105 0.630306 
230.068527 7.794376 
230.092255 5.788959 
230.821762 0.052499 
231.075775 1.753774 
239.237671 0.055462 
240.076859 1.943543 
241.084686 5.30207 
242.069122 3.446416 
242.092514 100.0 
243.095871 13.281076 
243.467773 0.098181 
244.07135 0.392342 
245.092255 1.021061 
245.973221 0.082103 
247.651047 0.102736 
257.091919 0.151494 
263.240479 0.051992 
269.31076 0.041326 
275.848236 0.099675 
278.538086 0.083682 
278.593842 0.044367 
278.905792 0.105145 
279.090668 0.053453 
284.372223 0.151389 
285.376129 0.191744 
289.117432 0.101497 
291.89679 0.109418 
300.952393 0.185883 
305.244354 0.048625 
336.336731 0.175616 
336.533966 0.119084 
341.424896 0.236185 
341.830292 0.057078 
347.263123 0.089447 
349.029266 0.10051 
349.309235 0.09036 
360.848328 0.137048 
378.050018 0.050853 
END IONS

