BEGIN IONS
TITLE=Scan Number: 1
PEPMASS=259.06601
CHARGE=1+
COMPOUNDNAME=Alternariol
LIBRARYQUALITY=3
SMILES=CC1=C2C(OC(C3=C2C=C(O)C=C3O)=O)=CC(O)=C1
INCHIKEY=CEBXXEKPIIDJHL-UHFFFAOYSA-N
INCHI=InChI=1S/C14H10O5/c1-6-2-7(15)5-11-12(6)9-3-8(16)4-10(17)13(9)14(18)19-11/h2-5,15-17H,1H3
MSLEVEL=2
SOURCE_INSTRUMENT=DI-ESI-qTof
FILENAME=gnps_Alternariol_pos_MplusH.mgf
SEQ=*..*
NOTES=
IONMODE=Positive
ORGANISM=GNPS-LIBRARY
NAME=Alternariol M+H
SPECTRUMID=CCMSLIB00000081752
ACTIVATION=CID
INSTRUMENT=ion trap
SCANS=1
259.066467 249.0 
260.07132 111.0 
END IONS

