BEGIN IONS
PEPMASS=347.149
CHARGE=1+
COMPOUNDNAME=GIBBERELLIC ACID
LIBRARYQUALITY=3
SMILES=N/A
INCHIKEY=IXORZMNAPKEEDV-SNTJWBGVSA-N
INCHI=InChI=1S/C19H22O6/c1-9-7-17-8-18(9,24)5-3-10(17)19-6-4-11(20)16(2,15(23)25-19)13(19)12(17)14(21)22/h4,6,10-13,20,24H,1,3,5,7-8H2,2H3,(H,21,22)/t10-,11+,12-,13-,16+,17+,18+,19-/m1/s1
MSLEVEL=2
SOURCE_INSTRUMENT=N/A-ESI-QFT
FILENAME=library_mgf.mgf
SEQ=*..*
IONMODE=positive
ORGANISM=MONA
NAME=GIBBERELLIC ACID [M+H]+
PI=MoNA
DATACOLLECTOR=MoNA:VF-NPL-QEHF006376
PUBMED=N/A
SUBMITUSER=mwang87
TAGS=
SPECTRUMID=CCMSLIB00004697439
SCANS=6376
50.076019 0.004999 
50.197403 0.006238 
50.462357 0.003904 
50.661526 0.007514 
50.708042 0.00587 
51.282234 0.010238 
51.306385 0.005895 
51.388386 0.004043 
51.934204 0.004001 
51.936409 0.007798 
52.112698 0.006302 
52.416985 0.009902 
52.635723 0.004319 
52.748032 0.004664 
53.002937 0.034468 
53.039349 0.061655 
53.089249 0.004283 
53.468243 0.004496 
53.54192 0.004755 
54.032303 0.006544 
54.25111 0.007187 
54.292164 0.004092 
54.446007 0.009118 
54.51165 0.009477 
55.018551 2.669372 
55.054947 2.057866 
55.480808 0.010022 
55.940022 0.009476 
55.984772 0.004015 
56.021915 0.013373 
56.050182 0.751004 
56.058277 0.021713 
56.45644 0.006196 
56.472012 0.004892 
56.9655 0.515977 
57.03418 1.169127 
57.064884 0.004115 
57.070557 2.748828 
57.071957 0.020966 
57.108246 0.004155 
57.263519 0.004634 
57.620193 0.004148 
57.942245 0.010446 
58.065819 19.199245 
58.067245 0.418344 
58.068047 0.041258 
58.073864 0.018524 
58.449112 0.004915 
58.686104 0.004479 
58.716301 0.009261 
59.049858 1.292704 
59.061077 0.374903 
59.062912 0.019073 
59.069141 0.586912 
59.182865 0.004198 
59.53944 0.004405 
59.551044 0.00425 
59.714241 0.009632 
59.842548 0.003818 
60.045059 1.769016 
60.05611 0.015598 
60.081413 0.847017 
60.745659 0.009354 
60.900253 0.008398 
61.011284 0.311135 
61.208374 0.008174 
61.41674 0.004468 
62.019154 0.158962 
62.060699 0.217392 
62.211765 0.00951 
62.388584 0.008953 
62.718334 0.006336 
62.823067 0.010045 
62.95145 0.008116 
62.982403 0.66402 
63.99828 0.016833 
64.121719 0.010692 
64.190971 0.004308 
64.480217 0.008559 
64.809769 0.009868 
64.873459 0.007668 
64.885101 0.008975 
64.977928 0.005324 
64.995628 0.008756 
65.028419 0.006086 
65.039146 0.016588 
65.265793 0.006448 
65.679337 0.009371 
65.757881 0.010515 
65.928993 0.003892 
66.243118 0.004026 
67.054886 3.003731 
67.249969 0.003896 
67.275444 0.003882 
67.561028 0.009164 
67.621948 0.009572 
67.71817 0.007922 
67.908569 0.004248 
68.050079 0.117409 
68.058144 0.038449 
68.227188 0.016697 
68.23175 0.031906 
68.8209 0.004299 
69.034111 0.968252 
69.070518 3.321581 
69.258461 0.004661 
69.961678 0.003972 
70.02935 0.139246 
70.065781 4.843786 
70.07386 0.043318 
70.23204 0.010235 
70.421616 0.006639 
70.525871 0.008893 
70.679184 0.010248 
71.049759 1.916219 
71.069061 0.135959 
71.086136 1.535965 
71.219719 0.00386 
71.290779 0.004677 
71.606056 0.011093 
71.942093 0.007928 
72.044991 0.518223 
72.053093 0.019034 
72.081413 3.614457 
72.126312 0.00846 
72.167847 0.004379 
72.669006 0.005264 
73.028938 0.619144 
73.065384 0.666767 
73.084694 0.094831 
73.410133 0.004891 
74.006371 0.008178 
74.024277 0.088692 
74.060631 2.077077 
74.096954 0.30877 
74.26152 0.004816 
74.976097 0.043584 
74.987183 0.003946 
75.044624 0.306888 
75.055885 0.009282 
76.039825 0.226472 
76.076263 0.509516 
76.455078 0.007624 
77.039474 0.017679 
77.144684 0.010152 
77.211426 0.004173 
77.405159 0.003903 
78.908661 0.003825 
79.02179 2.581337 
79.054771 1.926365 
79.992737 0.003669 
79.995728 0.00955 
80.049995 0.082272 
80.058189 0.009311 
80.599083 0.005441 
80.679314 0.003858 
80.948296 0.073886 
81.017372 0.006795 
81.033974 0.597623 
81.070404 6.435339 
81.072975 0.062904 
81.846558 0.009321 
82.065628 0.33379 
82.073685 0.308604 
82.324898 0.007269 
82.330353 0.004591 
82.448502 0.008767 
82.54348 0.009389 
82.945198 0.009448 
83.04969 2.939785 
83.060852 0.019387 
83.065392 0.004925 
83.086037 2.787624 
83.552383 0.004472 
83.791794 0.009018 
84.044899 2.908994 
84.052841 0.022072 
84.081291 5.29004 
84.089294 0.032213 
84.120056 0.004383 
84.69091 0.003792 
84.960197 0.028778 
85.028915 1.045574 
85.04007 0.084044 
85.048477 0.025272 
85.065292 2.895504 
85.084618 0.189238 
85.087593 0.009726 
85.101669 0.705935 
86.060524 1.587707 
86.068672 0.086737 
86.096909 8.093161 
86.10479 0.004063 
86.386864 0.003797 
86.541534 0.0105 
87.044518 1.74724 
87.055382 0.032328 
87.063988 0.012219 
87.080666 0.005804 
87.100227 0.540165 
87.191711 0.010432 
88.015961 0.004268 
88.021935 0.032659 
88.03978 1.160039 
88.076096 0.482801 
88.112663 0.016593 
89.060165 3.868861 
89.236053 0.004684 
89.894226 0.011034 
90.055328 0.254971 
90.063492 0.794464 
90.091721 0.041697 
90.615456 0.004246 
91.054657 2.480536 
91.064308 0.009161 
91.587006 0.004111 
92.057816 0.060216 
92.480576 0.00406 
92.651672 0.005221 
92.879845 0.009222 
93.070305 3.750974 
93.426071 0.003976 
94.065521 0.995654 
94.073547 0.118933 
94.309868 0.004536 
95.018784 0.00982 
95.049553 1.832207 
95.060822 0.065812 
95.085938 7.341729 
95.08931 0.078326 
96.044724 0.267933 
96.052849 0.033591 
96.081055 0.497977 
96.089172 0.434354 
96.584099 0.004426 
97.02877 0.663149 
97.042877 0.004496 
97.065208 2.784875 
97.076431 0.042193 
97.101547 2.125992 
97.112289 0.008966 
98.06041 0.793858 
98.06842 0.056323 
98.096809 11.247134 
98.104546 0.020379 
98.975754 0.353893 
98.984489 0.035426 
99.007805 0.011083 
99.044388 1.408381 
99.055565 0.041036 
99.080795 2.066216 
99.099991 0.427375 
100.039658 0.246024 
100.076057 3.203054 
100.079346 0.024013 
100.083862 0.041497 
100.091003 0.004142 
100.112389 0.844724 
100.17804 0.005784 
100.354958 0.008253 
101.003403 0.248682 
101.017387 0.010883 
101.023598 0.155652 
101.034637 0.008768 
101.060074 5.162947 
101.071121 0.402461 
101.079269 0.053128 
101.115929 0.012153 
101.173813 0.00429 
101.205704 0.005703 
102.05529 1.155067 
102.063293 0.132273 
102.091583 0.557397 
102.97081 0.007436 
103.039162 0.167908 
103.050575 0.07425 
103.054474 0.172125 
103.058517 0.026657 
103.074989 0.005242 
103.095001 0.015013 
104.034294 0.047608 
104.0709 1.286778 
104.078804 0.321223 
104.107269 0.215614 
104.346786 0.003894 
104.992584 0.031837 
105.033813 0.182003 
105.066544 0.03728 
105.070198 2.174521 
105.073845 0.032187 
106.050056 0.099512 
106.065315 0.014293 
106.073357 0.044161 
106.086685 0.011074 
106.900002 0.008615 
107.049454 1.340942 
107.070381 0.073344 
107.085823 3.946475 
107.618591 0.008956 
107.792679 0.003984 
108.01413 0.004691 
108.04464 0.113828 
108.052132 0.008769 
108.080956 0.70577 
108.08902 0.154504 
109.001602 0.00406 
109.02858 0.281878 
109.065025 2.329123 
109.07621 0.187358 
109.10141 4.536454 
110.060257 1.079408 
110.071602 0.089091 
110.096565 0.675721 
110.104698 0.281177 
110.510193 0.005982 
110.517311 0.00576 
110.583771 0.008386 
110.620811 0.009327 
111.044289 3.878898 
111.055573 0.110612 
111.06749 0.005783 
111.080658 2.046787 
111.091812 0.135215 
111.116982 0.458659 
111.461052 0.012382 
112.039482 0.347768 
112.047432 0.115951 
112.075905 1.18501 
112.083305 0.010702 
112.087616 0.007621 
112.112259 0.319299 
112.287315 0.009821 
113.006248 0.004552 
113.023399 0.037671 
113.059906 7.479672 
113.071129 0.114525 
113.079201 0.022357 
113.096321 2.581839 
113.730042 0.007744 
114.0373 0.038287 
114.055107 0.592947 
114.063171 0.380503 
114.091454 0.408289 
114.099518 0.061354 
114.819 0.004152 
115.039207 1.28171 
115.050339 0.065173 
115.075569 1.740246 
115.086731 0.371515 
115.53627 0.006694 
116.034309 0.120539 
116.052933 0.385463 
116.070786 2.082679 
116.078285 0.010008 
116.101967 0.004202 
116.107178 0.253223 
116.444405 0.007921 
116.625504 0.003949 
116.714462 0.005115 
116.986084 0.706163 
117.054771 0.22626 
117.066437 0.03048 
117.069977 0.940591 
117.074043 0.095308 
117.200455 0.003919 
117.768105 0.004753 
118.031754 0.011269 
118.049973 0.254122 
118.065384 0.08929 
118.073593 0.013201 
118.086403 6.428275 
118.970818 0.009182 
119.049294 0.302185 
119.085648 3.377181 
119.089897 0.186143 
119.255791 0.004741 
119.679832 0.004214 
119.921486 0.005319 
120.044518 0.12232 
120.065659 0.240542 
120.080933 2.02546 
120.088806 0.213361 
120.98687 0.01041 
121.028473 0.119944 
121.064911 1.862709 
121.084175 0.032227 
121.088486 0.009406 
121.101288 4.545908 
122.027306 0.022985 
122.060143 0.559782 
122.068199 0.024386 
122.096405 0.454662 
122.104591 0.281616 
122.990334 0.010983 
123.044159 0.804776 
123.055191 0.013133 
123.080559 2.639729 
123.091469 0.043668 
123.116928 2.166246 
123.22834 0.005062 
124.039391 0.257039 
124.075768 1.117125 
124.083748 0.084341 
124.112106 0.32418 
124.120171 0.124108 
124.205841 0.004426 
124.960709 0.008735 
125.023361 0.043761 
125.059769 1.870086 
125.070992 0.124097 
125.096191 2.069745 
125.107452 0.071762 
125.132484 0.05878 
125.181259 0.008685 
125.644333 0.004996 
125.810127 0.007215 
126.055023 0.674332 
126.06324 0.017035 
126.091423 0.944994 
126.099373 0.043085 
126.127777 0.070013 
127.039032 0.431246 
127.049934 0.023982 
127.075325 0.949234 
127.086624 0.17579 
127.09494 0.010845 
127.111794 0.48909 
128.03418 0.023471 
128.06546 0.007585 
128.070618 1.093341 
128.082245 0.024187 
128.10704 2.2258 
128.143326 0.047471 
129.018555 0.006345 
129.054626 2.055037 
129.065582 0.48599 
129.07019 0.151549 
129.090958 0.502925 
129.102264 0.229033 
129.110291 0.061982 
130.04985 1.378322 
130.058456 0.023967 
130.065063 0.829702 
130.086273 0.919364 
130.158997 3.731915 
130.530334 0.006164 
130.543808 0.010186 
130.894012 0.004542 
130.979507 0.020259 
131.001663 0.005929 
131.049088 0.470638 
131.069977 0.11227 
131.085495 1.616691 
131.363785 0.004804 
131.934601 0.004864 
132.04451 0.050202 
132.053207 0.01331 
132.065292 0.067355 
132.08075 0.396432 
132.088852 0.064994 
132.101837 1.180329 
133.064835 1.508121 
133.085785 0.765183 
133.101089 2.99096 
134.044617 0.012129 
134.059937 0.139779 
134.069214 0.004295 
134.089249 0.323098 
134.096237 0.186602 
134.104446 0.166084 
134.978622 1.653792 
134.996399 1.448276 
135.04393 0.418063 
135.080383 2.176085 
135.090851 0.031131 
135.11673 3.517597 
135.455261 0.010872 
135.676865 0.005308 
136.039001 0.119324 
136.061661 0.509644 
136.075592 1.99167 
136.083038 0.077637 
136.111984 0.292838 
136.119949 0.241302 
136.381516 0.004487 
136.958328 0.006185 
137.011688 0.614443 
137.023315 0.010133 
137.045914 0.096405 
137.059692 1.557558 
137.070786 0.091076 
137.078873 0.125644 
137.096024 2.191001 
137.132355 0.699844 
138.012466 0.023583 
138.05484 0.785465 
138.062378 0.007252 
138.091232 1.365143 
138.098969 0.069197 
138.127594 0.129577 
138.473373 0.013327 
139.00885 0.059164 
139.03894 0.216479 
139.050003 0.267865 
139.075256 1.856456 
139.085876 0.18167 
139.094574 0.012619 
139.111603 1.187083 
140.033936 0.032585 
140.070343 0.665004 
140.078293 0.038539 
140.106873 0.509173 
140.959595 0.012649 
141.054443 0.376352 
141.065567 0.245247 
141.090866 1.52395 
141.10199 0.109271 
141.127121 0.038644 
141.314301 0.005006 
141.331619 0.005043 
141.806961 0.011174 
142.049713 0.251467 
142.086182 1.059016 
142.092422 0.043582 
142.122421 0.692318 
142.15889 0.075449 
142.306412 0.004577 
143.034103 0.013254 
143.070236 1.416615 
143.085464 0.518346 
143.106552 0.136131 
143.117828 0.156721 
144.044281 0.219245 
144.065536 0.820352 
144.071609 0.023597 
144.080643 0.93686 
144.086502 0.010135 
144.101822 1.442594 
145.016388 0.005086 
145.049377 0.082436 
145.064621 0.199365 
145.075958 0.025307 
145.084915 0.026527 
145.100983 1.746148 
145.334076 0.005188 
146.026917 0.010696 
146.045135 0.015167 
146.059921 2.419086 
146.081116 0.106932 
146.0914 0.010823 
146.096802 0.08664 
146.104385 0.073226 
146.117355 0.24547 
146.571381 0.006234 
146.974075 0.195997 
146.996353 0.019871 
147.04393 0.274357 
147.064224 0.124821 
147.08049 1.027093 
147.091309 0.044468 
147.11676 2.191977 
147.907913 0.012221 
148.03891 0.026483 
148.060486 0.03766 
148.075546 0.579407 
148.083221 0.026093 
148.096664 0.053241 
148.111938 0.323457 
148.119919 0.095881 
148.706772 0.005016 
149.012009 0.100477 
149.059631 0.9375 
149.070831 0.02727 
149.096039 1.942495 
149.132339 1.441858 
150.040604 0.060718 
150.05481 0.497009 
150.091309 0.795506 
150.098511 0.086672 
150.127762 0.10493 
150.135513 0.066441 
151.038803 0.126574 
151.068756 0.011647 
151.075287 2.781506 
151.086304 0.118843 
151.09552 0.009622 
151.111603 1.373554 
151.122757 0.055159 
151.14798 0.145363 
152.032623 0.092647 
152.05658 0.061216 
152.070526 2.044936 
152.077667 0.085982 
152.106903 0.948788 
152.114304 0.014342 
152.69838 0.004534 
152.98912 5.012382 
153.006927 0.349354 
153.040817 0.039497 
153.054489 0.588156 
153.065781 0.378337 
153.073135 0.047633 
153.090912 1.565636 
153.102142 0.379595 
153.127213 0.755036 
153.992569 0.021276 
154.049728 0.403744 
154.08606 0.702247 
154.093063 0.036508 
154.12262 0.748312 
154.128967 0.011109 
154.96843 0.020427 
154.984863 0.14342 
155.022064 0.559877 
155.045166 0.020695 
155.070129 0.631127 
155.081161 0.266226 
155.085632 0.022479 
155.10643 0.808914 
155.117767 0.223836 
155.125427 0.011893 
156.022675 0.035945 
156.065338 0.707092 
156.101807 0.831812 
156.108444 0.023846 
156.138168 0.302841 
157.019058 0.069906 
157.049377 0.007275 
157.075928 4.637511 
157.08548 0.224355 
157.101227 0.65899 
157.12204 0.064276 
157.133484 0.053077 
158.025818 0.010016 
158.059937 0.997437 
158.080551 0.627733 
158.096786 0.022857 
158.104156 0.026218 
158.117508 0.492983 
159.080414 0.345086 
159.091614 1.302093 
159.101318 1.385339 
159.116684 1.451853 
160.048355 0.012066 
160.060257 0.074056 
160.075516 0.485175 
160.09642 0.459122 
160.104553 0.013904 
160.112076 0.116329 
160.119827 0.053157 
160.139771 0.005579 
160.920547 0.00975 
160.989609 0.09803 
161.011642 0.018155 
161.059586 0.292729 
161.071091 0.077998 
161.080444 0.233366 
161.096024 1.430609 
161.107178 0.173374 
161.132339 1.185063 
162.006943 0.010193 
162.02182 0.096547 
162.054642 0.32437 
162.076004 0.030273 
162.084229 0.010857 
162.091141 0.784239 
162.098679 0.027547 
162.114929 0.617502 
162.127518 0.129042 
162.135376 0.019349 
163.026962 0.026005 
163.038498 0.025488 
163.075134 0.960359 
163.086319 0.189422 
163.111588 1.410409 
163.122986 0.285529 
163.147934 0.559346 
164.04451 0.028292 
164.070496 0.884015 
164.07756 0.008463 
164.107147 1.048583 
164.114319 0.089598 
165.006821 0.015601 
165.05452 0.88252 
165.065887 0.081855 
165.090912 1.597258 
165.1017 0.134393 
165.127304 0.777245 
165.138184 0.011891 
165.163239 0.026962 
166.049728 0.125839 
166.086166 1.169116 
166.093765 0.077682 
166.122543 0.703182 
166.129868 0.010333 
166.159271 0.02282 
167.00473 0.174409 
167.016205 0.011533 
167.022385 0.005697 
167.045013 0.032573 
167.070221 1.433214 
167.081421 0.067147 
167.106506 0.990691 
167.117813 0.693704 
167.14296 0.208209 
167.976364 0.08376 
168.065323 0.527081 
168.101822 0.684063 
168.108978 0.023338 
168.138245 0.110564 
168.962372 0.008331 
169.049362 0.034209 
169.061279 0.013343 
169.077942 0.039589 
169.085861 0.953509 
169.101318 0.274984 
169.122452 0.236687 
169.133484 0.055229 
170.023636 0.01641 
170.044785 0.062748 
170.059921 0.335868 
170.081009 2.293293 
170.096069 0.036163 
170.117447 0.586476 
170.125305 0.01118 
170.1539 0.115633 
170.19017 0.562273 
170.9552 0.060554 
170.999664 1.108143 
171.064896 0.034533 
171.079803 0.043987 
171.091919 0.143495 
171.10144 0.172917 
171.116653 0.570288 
171.138168 0.021752 
171.148956 0.024867 
171.193665 0.027491 
172.002441 0.004479 
172.027695 0.007248 
172.042465 0.013588 
172.060654 0.034639 
172.075516 0.46562 
172.096634 0.242755 
172.112122 0.044162 
172.12056 0.024002 
172.133072 0.873514 
172.943802 0.024708 
173.070908 0.473713 
173.079697 0.050301 
173.096222 0.65506 
173.108673 0.139612 
173.117203 1.809459 
173.132294 0.58204 
174.006439 0.014178 
174.05484 1.629691 
174.075653 0.069127 
174.091263 0.507053 
174.098572 0.010349 
174.112366 0.089116 
174.120438 0.045537 
174.12796 0.012282 
174.13588 0.009632 
174.148941 0.070628 
175.003296 0.021131 
175.027512 0.042249 
175.037094 0.017121 
175.057877 0.032429 
175.075211 0.437694 
175.086411 1.015002 
175.095032 0.136503 
175.111862 0.92408 
175.119736 0.058222 
175.148041 0.752464 
176.070175 0.549224 
176.106888 0.476786 
176.114655 0.026051 
176.143494 0.013664 
176.989212 0.235266 
177.042999 0.006627 
177.054398 0.174554 
177.065491 0.034424 
177.090881 0.813704 
177.101883 0.268521 
177.110901 0.015916 
177.127365 0.678358 
177.138199 0.089479 
177.163666 0.7481 
177.262863 0.004681 
178.038589 0.008521 
178.049408 0.076052 
178.086121 0.93656 
178.093979 0.059634 
178.107498 0.01059 
178.122528 0.438874 
179.022141 0.428004 
179.070068 0.667803 
179.081665 0.061874 
179.106613 1.53557 
179.116745 0.153707 
179.142975 0.349595 
179.179642 0.023074 
180.01709 0.059664 
180.065063 0.532559 
180.07486 0.010267 
180.101822 1.306473 
180.10997 0.125822 
180.13826 0.058314 
180.984024 0.033602 
181.019257 0.039725 
181.038025 0.008577 
181.050125 0.094805 
181.060455 0.644545 
181.085754 0.498397 
181.097229 0.157661 
181.122223 0.703782 
181.133087 0.032831 
181.158722 0.021958 
181.979156 0.076422 
182.044739 0.242522 
182.080795 0.700736 
182.090775 0.021191 
182.104248 0.025029 
182.117416 0.760723 
182.154037 0.059819 
182.753952 0.004145 
182.791077 0.004821 
183.056168 0.029756 
183.065689 0.052742 
183.076508 0.289041 
183.091904 0.038154 
183.101471 0.262628 
183.11586 0.308454 
183.138016 0.102708 
183.390976 0.004249 
184.003738 0.01494 
184.040192 0.015482 
184.060272 0.100495 
184.075546 0.122149 
184.096756 0.489809 
184.133102 0.652619 
184.190826 0.004296 
185.013672 0.009436 
185.055542 0.040311 
185.070953 0.340336 
185.080246 0.071199 
185.095886 0.308533 
185.116959 0.123835 
185.132309 0.367685 
185.153488 0.025072 
185.164871 0.067623 
185.422638 0.005957 
186.021103 0.026676 
186.055084 0.204728 
186.075882 0.181726 
186.091354 0.399477 
186.112442 0.520861 
186.121155 0.010858 
186.148834 0.221253 
187.026978 0.012508 
187.075821 0.19953 
187.086517 1.189238 
187.095947 0.032133 
187.110443 0.403561 
187.123032 0.011456 
187.133804 0.075699 
187.143631 2.004773 
188.055725 0.01339 
188.070541 0.9812 
188.081528 0.099186 
188.091415 1.021851 
188.106857 0.484683 
188.128159 0.191423 
188.144028 0.015338 
188.965744 0.109814 
189.006821 0.007217 
189.042847 0.199956 
189.053955 0.05037 
189.065552 0.045934 
189.091217 0.76181 
189.10228 0.556292 
189.111969 0.64055 
189.127228 0.625652 
189.138153 0.08533 
189.164017 0.273762 
190.037628 0.008237 
190.048309 0.218819 
190.074966 0.009724 
190.085983 0.714095 
190.096664 0.091771 
190.10704 0.87872 
190.122574 0.431844 
190.131317 0.01142 
190.909622 0.005009 
190.953705 0.196268 
190.968231 0.010319 
191.00032 0.009697 
191.022232 0.277629 
191.055222 2.107748 
191.070618 0.189571 
191.08136 0.369291 
191.106598 0.940609 
191.117676 0.407841 
191.143021 0.258964 
191.179321 0.447334 
192.0168 0.029206 
192.065399 0.858088 
192.074661 0.04617 
192.101669 0.764981 
192.110672 0.075821 
192.138107 0.119057 
192.183517 0.008091 
193.038071 0.027994 
193.049561 0.013329 
193.060257 0.014186 
193.085281 0.477833 
193.100616 0.300704 
193.122314 0.88722 
193.132889 0.183369 
193.158722 0.099096 
194.080841 0.465443 
194.117477 0.418063 
194.126678 0.016919 
194.140244 0.012683 
194.153793 0.027476 
194.99971 1.20654 
195.065002 0.159516 
195.079971 0.221903 
195.087357 0.054376 
195.101395 0.499573 
195.116318 0.281678 
195.138031 0.477512 
195.148361 0.016593 
195.174286 0.641017 
196.060287 0.057663 
196.096695 0.347395 
196.133041 0.350209 
196.177261 0.00806 
196.995499 0.005096 
197.014755 0.156841 
197.032608 0.056445 
197.081345 0.100216 
197.095352 0.531931 
197.117203 0.372092 
197.130798 0.244721 
197.974396 0.070006 
198.016342 0.014031 
198.067398 0.007612 
198.07605 0.560859 
198.091064 0.103798 
198.101242 0.012116 
198.112274 0.418544 
198.128433 0.013601 
198.148987 0.274984 
198.976547 0.049179 
198.993042 0.005761 
199.011917 0.037246 
199.071442 0.241712 
199.085892 0.236904 
199.096405 0.02652 
199.110809 0.260404 
199.122589 0.015866 
199.132797 0.11259 
199.147949 0.216979 
199.169952 0.013064 
199.180405 0.013172 
199.989471 0.004602 
200.070663 0.439931 
200.091522 0.120824 
200.10672 0.334744 
200.117706 0.007705 
200.127975 0.684716 
200.151443 0.005534 
200.164505 0.028324 
201.043335 0.008377 
201.065674 0.180595 
201.090759 0.514511 
201.102234 2.153519 
201.112778 0.0305 
201.126129 0.81057 
201.163681 2.140902 
202.049744 0.434028 
202.085922 0.620669 
202.096436 0.099244 
202.106613 0.601575 
202.12265 0.363072 
202.132492 0.022586 
202.143692 0.042772 
202.166763 0.091003 
203.022141 0.015968 
203.058441 0.021044 
203.070572 0.160228 
203.081436 0.465677 
203.0914 0.039185 
203.106613 0.567361 
203.117722 0.356268 
203.127731 0.230116 
203.143082 0.756163 
203.179459 0.244738 
204.064545 0.537622 
204.101974 0.902747 
204.112717 0.189316 
204.125473 1.144677 
204.137497 0.174291 
204.161224 0.034044 
205.037521 0.085916 
205.059952 0.010501 
205.070923 0.398712 
205.085953 0.233204 
205.096954 0.636128 
205.122116 0.706319 
205.133575 2.124685 
205.158203 0.091925 
205.194397 0.008231 
206.080582 0.691777 
206.091385 0.011037 
206.117432 0.636565 
206.127151 0.063963 
206.137436 0.108093 
206.153656 0.023102 
206.775131 0.004902 
206.977554 0.025981 
206.999969 0.007579 
207.01741 0.023371 
207.053009 0.152661 
207.064285 0.09668 
207.076248 0.054397 
207.101212 0.633977 
207.113007 0.40616 
207.137863 0.785592 
207.148392 0.098199 
207.173996 0.061674 
208.051437 0.005692 
208.096603 0.541408 
208.133087 0.33933 
208.143188 0.008155 
208.584381 0.006101 
208.919739 0.261929 
208.964554 0.109727 
208.978989 1.029651 
209.015274 0.179481 
209.032837 0.39233 
209.048355 0.31454 
209.081085 0.059448 
209.094772 0.378507 
209.117142 2.225267 
209.12944 0.360653 
209.153473 0.231749 
209.189911 1.237318 
210.028748 0.016683 
210.050537 0.015828 
210.076004 0.039316 
210.090347 0.036459 
210.111069 0.40737 
210.137543 0.050218 
210.148972 0.367093 
210.193359 0.017022 
210.916626 0.038512 
210.961121 0.004644 
210.972351 0.004605 
210.994522 0.289687 
211.028625 0.035001 
211.074997 0.058106 
211.085953 0.039942 
211.096451 0.101537 
211.111252 0.568479 
211.121582 0.013982 
211.13298 0.202273 
211.147934 0.600885 
211.205627 0.066643 
212.070419 0.057011 
212.091721 0.090438 
212.107025 0.259449 
212.117233 0.012997 
212.12793 0.170844 
212.152313 0.024597 
212.164185 0.182903 
212.237152 0.325041 
212.992523 2.419094 
213.010391 0.162611 
213.042648 0.02647 
213.065369 0.038407 
213.079163 0.015193 
213.097137 3.481236 
213.112244 0.085861 
213.127136 0.290106 
213.163406 0.049232 
213.995499 0.040482 
214.03772 0.00951 
214.07254 0.025055 
214.085907 0.322498 
214.097046 0.00966 
214.10762 0.090839 
214.122238 0.121565 
214.143814 0.184515 
214.658112 0.12799 
214.676498 0.446815 
214.934006 0.193442 
214.954056 0.050545 
214.971542 0.006531 
214.988037 0.074316 
215.023163 0.084983 
215.058441 0.033934 
215.080032 0.820586 
215.09227 0.025096 
215.10643 0.338642 
215.116852 0.112015 
215.126511 0.358976 
215.139923 0.528466 
215.17952 0.048003 
216.032318 0.012998 
216.065247 0.237283 
216.087433 0.09167 
216.10141 0.6016 
216.112488 0.027781 
216.123581 0.05064 
216.138443 0.095027 
216.159698 0.171407 
216.96933 0.274454 
216.986801 1.407597 
217.021072 0.030819 
217.03746 0.018214 
217.048645 0.032319 
217.059952 0.028905 
217.073883 0.046544 
217.096344 0.798034 
217.108337 0.008961 
217.122177 0.452877 
217.133301 0.406419 
217.144226 0.022319 
217.158035 0.093774 
217.194519 0.025967 
217.361572 0.004983 
217.992126 0.01203 
218.046539 0.013501 
218.080917 0.680604 
218.091553 0.025973 
218.10582 0.042982 
218.117279 0.75341 
218.127975 0.114083 
218.139374 0.119256 
218.943527 0.042879 
218.982376 0.029841 
219.019257 0.060019 
219.05368 0.031888 
219.065323 0.074635 
219.076111 0.606516 
219.088654 0.022582 
219.101196 0.334665 
219.113266 0.457038 
219.138992 0.87934 
219.14917 29.059797 
219.159393 0.118863 
219.174149 61.354053 
220.06015 0.09659 
220.096283 0.645093 
220.133179 0.689079 
220.152618 1.954502 
220.166306 0.008626 
220.177612 2.42197 
221.016479 0.006253 
221.044403 0.034614 
221.081085 0.042974 
221.094254 0.186269 
221.116684 0.413819 
221.12999 0.552889 
221.153381 0.475533 
221.164688 0.026798 
221.189758 0.087418 
222.075836 0.104517 
222.112259 0.356298 
222.123749 0.033367 
222.136292 0.203335 
222.147934 0.08082 
222.933517 0.005668 
222.994736 0.010988 
223.097092 0.048612 
223.110229 0.343587 
223.132584 0.648083 
223.144684 0.506788 
223.169067 0.202281 
224.014343 0.011365 
224.068848 0.051573 
224.091537 0.166791 
224.103851 0.023855 
224.115234 0.005884 
224.127884 0.227901 
224.138474 0.035651 
224.164001 0.1187 
225.043472 0.05491 
225.079605 1.684292 
225.091171 0.241371 
225.112442 0.197689 
225.126068 0.236294 
225.148438 0.098146 
225.163879 0.087213 
226.03511 0.005094 
226.064117 0.018448 
226.085617 0.228956 
226.098801 0.008691 
226.107864 0.029215 
226.122192 0.141535 
226.143478 0.101142 
226.17981 0.04883 
226.216248 0.540069 
226.930389 0.799835 
226.989548 0.49349 
227.022766 0.089817 
227.043335 0.139043 
227.058746 0.416025 
227.067413 0.1903 
227.080963 0.100336 
227.094055 0.011083 
227.112808 0.395921 
227.127792 0.24716 
227.142303 0.125046 
227.164917 0.055223 
227.179794 0.161191 
227.200363 0.319918 
227.220642 0.014618 
227.983673 0.005748 
228.053848 0.098558 
228.065277 0.096355 
228.090225 0.114754 
228.101562 0.41811 
228.12326 0.131727 
228.137741 0.087243 
228.159424 0.357401 
228.183502 0.015575 
228.19577 0.27119 
228.927155 0.31254 
229.004318 0.027557 
229.038483 0.008477 
229.061691 0.025509 
229.074234 0.312107 
229.085403 0.089246 
229.096802 0.280108 
229.106934 0.013249 
229.12204 0.618615 
229.132996 0.170068 
229.143326 0.643131 
229.156876 0.645262 
229.194839 0.04722 
230.080658 0.560755 
230.091949 0.013126 
230.103882 0.02645 
230.116913 0.737574 
230.138962 0.056437 
230.175095 0.04608 
231.003006 0.390777 
231.053238 0.027456 
231.07605 0.222993 
231.107651 6.811044 
231.124268 0.025603 
231.137238 0.154291 
231.149017 0.195847 
231.174149 0.018582 
232.058243 0.21784 
232.071045 0.014877 
232.083664 0.017819 
232.096344 0.895233 
232.1082 0.550142 
232.120438 0.032813 
232.132797 0.350448 
232.144394 0.449954 
232.944489 0.264803 
232.964417 0.658909 
233.035568 0.005933 
233.069168 0.029741 
233.089432 1.357777 
233.116104 0.359425 
233.12851 0.550054 
233.141479 0.067411 
233.152817 0.277859 
233.190125 0.02864 
233.891754 0.00634 
234.074799 0.25541 
234.087448 0.012847 
234.099442 0.024218 
234.112 0.433785 
234.123917 0.032904 
234.135147 0.013568 
234.148682 0.07443 
234.959946 0.149271 
234.980606 0.161723 
234.997345 3.115859 
235.030869 0.036788 
235.047714 0.029344 
235.06958 0.301264 
235.095322 0.190983 
235.107574 0.238071 
235.12001 0.01242 
235.132507 0.440467 
235.144455 0.208972 
235.169067 0.100076 
235.205521 0.014538 
235.999023 0.024714 
236.052567 0.013953 
236.090851 0.150531 
236.127869 0.325666 
236.163864 0.088727 
236.955032 0.013936 
236.992798 0.232841 
237.026047 0.015923 
237.089981 0.081229 
237.111954 0.061389 
237.126328 0.413284 
237.148392 0.955081 
237.162323 0.238653 
237.184692 1.53778 
238.070068 0.014615 
238.086197 0.011119 
238.106064 0.013249 
238.121353 0.027459 
238.131454 0.01155 
238.143463 0.014235 
238.188339 0.053526 
238.991058 0.005741 
239.058319 0.722126 
239.093948 0.054908 
239.1129 0.701488 
239.127945 0.033723 
239.142212 0.3939 
239.164062 0.695546 
239.177948 0.186009 
240.060562 0.990807 
240.088882 0.018849 
240.101151 0.146964 
240.113876 0.030187 
240.124405 0.044625 
240.137207 0.041526 
240.194962 0.015715 
240.232208 0.222726 
240.908386 0.006952 
241.055389 0.722432 
241.074524 0.101833 
241.08519 0.151738 
241.096985 0.995816 
241.109711 0.024955 
241.121689 0.262135 
241.130035 0.110738 
241.143356 2.280213 
241.156906 0.198749 
241.179901 0.146073 
241.195374 0.01629 
241.235382 0.355592 
242.068481 0.007258 
242.080612 0.121735 
242.10379 0.20568 
242.117477 0.303656 
242.125458 0.14972 
242.147415 0.098173 
242.211288 0.708936 
242.238632 0.622452 
242.983551 0.008693 
243.001495 0.004671 
243.053345 0.164259 
243.076782 0.19598 
243.090057 2.916635 
243.110779 0.629421 
243.123917 0.020954 
243.136063 0.163511 
243.148376 0.143971 
243.174179 0.106694 
243.213898 0.115901 
244.060806 0.012113 
244.083466 0.06993 
244.095703 0.771641 
244.142517 2.50915 
244.156113 0.024185 
244.169342 0.009155 
244.190948 0.014013 
244.94101 0.135575 
245.016678 0.013425 
245.033035 0.05554 
245.069733 0.143949 
245.09166 0.363217 
245.105316 0.290752 
245.12558 0.936857 
245.152496 0.02347 
245.165451 0.013309 
245.189713 0.180389 
246.064606 0.221711 
246.074905 0.1456 
246.100128 0.029915 
246.111755 0.516042 
246.135162 0.025506 
246.147949 0.304437 
246.159607 0.046755 
246.170181 0.24052 
246.19368 0.015559 
246.937363 0.092374 
246.979874 0.030528 
247.046539 0.015428 
247.070175 0.017351 
247.084808 0.165105 
247.095245 0.071583 
247.107407 0.653949 
247.131744 1.076099 
247.144379 0.598629 
247.168625 1.034497 
247.205154 0.010416 
247.906586 0.017696 
248.051544 0.012352 
248.0905 0.468496 
248.103271 0.069799 
248.127594 0.38288 
248.139557 0.212834 
248.163895 0.634616 
248.20079 0.013231 
249.01297 0.145154 
249.045578 0.009047 
249.060623 0.067666 
249.087875 0.321657 
249.110428 0.154248 
249.123062 0.613845 
249.147064 0.134114 
249.15947 0.545 
249.184555 0.034122 
250.069244 0.059044 
250.105789 0.447874 
250.118988 0.376059 
250.143295 0.173775 
250.893585 0.018493 
250.974731 0.512647 
251.058838 0.03487 
251.101807 0.707732 
251.113678 0.443124 
251.126923 0.108143 
251.139832 0.073231 
251.163925 0.163911 
251.200394 0.670011 
252.102493 0.014141 
252.113998 0.053551 
252.158127 0.008407 
252.926682 0.006352 
252.970383 0.219639 
253.007523 0.087501 
253.038147 0.238163 
253.073837 0.00709 
253.091385 0.128974 
253.10759 0.012244 
253.120987 0.088983 
253.143814 0.027371 
253.157837 0.13697 
254.042099 0.067696 
254.069473 0.042576 
254.080154 0.04742 
254.116867 0.075104 
254.139252 0.064234 
254.174835 0.047853 
254.248032 0.053502 
254.28511 0.013285 
254.924286 0.020848 
255.05397 0.038835 
255.076126 0.542859 
255.089401 0.062533 
255.100616 0.104836 
255.113007 0.060602 
255.13707 0.403673 
255.173767 0.364873 
256.061829 0.01534 
256.096161 0.283713 
256.119598 0.012069 
256.132629 0.213726 
256.154938 0.133144 
256.190643 0.545608 
256.204529 0.012751 
256.235596 0.035162 
256.263763 0.037171 
256.946472 0.005146 
256.964355 0.071864 
257.016174 0.011672 
257.068909 0.137028 
257.080017 0.016944 
257.092499 0.061112 
257.106049 0.118437 
257.123993 1.670559 
257.152222 0.10292 
257.189758 0.058831 
258.076263 0.180306 
258.099792 0.075444 
258.112 0.438639 
258.125061 0.251392 
258.148102 0.193442 
258.997742 0.06555 
259.084534 0.604355 
259.107239 0.484442 
259.119812 0.085635 
259.130341 0.031364 
259.143677 1.493694 
259.156097 0.065572 
259.167908 0.035424 
259.180908 0.031916 
260.091034 0.147635 
260.115509 0.021094 
260.127563 0.408193 
260.163452 0.127929 
260.959381 0.020556 
261.013062 0.054813 
261.028839 0.005426 
261.086792 1.256762 
261.100464 0.429626 
261.121948 0.898488 
261.146545 0.016593 
261.169739 1.211102 
261.184204 0.10671 
262.094391 0.376524 
262.106354 0.286758 
262.142548 0.16215 
262.154022 0.27077 
263.069397 0.012987 
263.10202 0.087238 
263.115906 0.019807 
263.139618 0.371953 
263.201385 0.019962 
263.236542 0.012776 
263.977966 0.01686 
264.084991 0.014334 
264.122467 0.193065 
264.158997 0.050101 
264.172455 0.012087 
264.195801 0.034092 
264.990082 0.023381 
265.104767 0.03312 
265.121124 0.079774 
265.143127 0.773651 
265.156433 0.056018 
265.179504 2.437708 
265.215271 0.018133 
265.939423 0.254118 
266.117554 0.355476 
266.137756 0.013976 
266.183655 0.164364 
267.053589 0.031645 
267.089752 0.041583 
267.102997 0.316295 
267.122742 0.040406 
267.137115 0.295476 
268.055725 0.011604 
268.083923 0.03418 
268.095917 0.034335 
268.108765 0.215816 
268.133118 0.265553 
268.154816 0.046544 
268.191681 0.011264 
268.94046 0.013077 
269.03479 0.010994 
269.052429 0.031858 
269.069244 1.16758 
269.091827 2.668058 
269.105316 0.24895 
269.123169 3.731133 
269.15271 0.079372 
269.210846 0.02272 
270.07547 0.120031 
270.097443 0.457348 
270.112244 0.241324 
270.124939 0.672804 
270.148254 0.219609 
270.170776 0.058237 
270.938751 0.190515 
270.980591 0.011595 
270.997528 0.006342 
271.048492 0.262626 
271.085358 0.405326 
271.102539 3.974754 
271.119598 0.159664 
271.143524 0.525395 
271.168915 0.25381 
271.203857 0.036357 
271.915436 0.065232 
271.940735 0.048504 
272.052795 0.049429 
272.079529 0.314133 
272.091248 0.22998 
272.126404 0.585716 
272.148987 0.008437 
272.162415 0.167684 
272.18634 0.021501 
272.89859 0.004792 
272.933472 0.285866 
273.064423 0.087504 
273.100189 7.053279 
273.123718 0.37695 
273.145599 0.196328 
273.159943 0.391204 
273.184448 0.132875 
273.206177 0.059911 
273.412292 0.006362 
273.913025 0.011732 
274.070068 0.042998 
274.106232 0.589035 
274.143188 0.53162 
274.165619 0.071387 
274.181 0.010603 
274.893921 0.171383 
274.931183 0.033263 
274.974609 0.757886 
275.07962 0.016705 
275.102417 0.510125 
275.138489 0.277941 
275.175995 0.023635 
275.200165 0.013623 
275.548828 0.005238 
275.978119 0.006414 
276.084503 0.032807 
276.121918 0.065929 
276.159821 0.023018 
277.007843 0.130636 
277.095673 0.035726 
277.117737 0.027291 
277.154755 0.368605 
277.17865 0.009503 
277.191864 0.013865 
278.137238 0.011968 
278.969238 0.036626 
279.005676 0.012045 
279.022797 0.006317 
279.158081 0.215808 
279.1716 0.0102 
279.194885 0.022886 
280.106293 0.015346 
281.128052 0.011117 
281.152588 0.248637 
281.186371 0.025073 
282.112396 0.209315 
282.149719 0.035261 
282.169952 0.02056 
282.18811 0.012517 
282.20639 0.57395 
282.919189 0.012324 
283.083893 0.006423 
283.10791 0.114563 
283.131653 0.134521 
283.149139 0.070257 
283.168915 0.415389 
283.190247 1.941431 
283.204651 0.038335 
283.950043 0.019925 
284.090546 0.048013 
284.127289 0.28303 
284.16571 0.123784 
284.193237 0.069283 
285.064148 0.130509 
285.10025 0.272846 
285.120544 0.830928 
285.159393 0.354555 
285.172516 0.106829 
285.217072 0.119781 
285.901855 0.064677 
286.013977 0.006218 
286.067139 0.242079 
286.095428 0.399786 
286.105927 0.193409 
286.118805 0.393895 
286.143341 0.294443 
286.166138 0.143425 
286.180969 0.203139 
286.201172 0.34911 
286.894196 0.027997 
286.95816 0.095562 
287.025909 0.007684 
287.043427 0.097848 
287.061707 0.167086 
287.080139 2.49018 
287.102203 2.197691 
287.116364 0.912678 
287.133392 14.959397 
287.174408 0.641786 
287.893524 0.005139 
288.038818 0.007069 
288.057373 0.028317 
288.074768 0.220611 
288.084869 0.141647 
288.109589 0.379579 
288.120331 1.023254 
288.135803 3.763679 
288.158905 0.135716 
288.17981 0.113445 
288.19632 0.02556 
288.922638 0.089899 
288.951782 0.32804 
288.990265 0.078043 
289.007324 0.260574 
289.058624 0.043903 
289.080292 0.098509 
289.095978 1.208278 
289.11554 0.671827 
289.130768 0.844692 
289.154175 2.072357 
289.177917 0.023084 
289.1922 0.013341 
289.215393 0.04799 
289.925598 0.159776 
290.100067 0.200088 
290.137817 0.177626 
290.148773 0.146625 
290.174988 0.058314 
290.946411 0.00482 
291.110016 2.226288 
291.134216 0.411876 
291.15152 0.008243 
291.170532 0.298695 
291.922943 0.011096 
292.114746 0.052048 
292.153046 0.651872 
292.168091 0.809096 
292.190918 0.026826 
292.985199 0.550171 
293.169006 0.245666 
294.112579 0.047952 
295.096588 0.009514 
295.202728 0.048819 
296.089172 0.01723 
296.164795 0.20751 
296.222168 0.304264 
296.995544 0.005194 
297.124634 0.024316 
297.146149 0.011842 
298.106628 0.011609 
298.122894 0.028886 
298.309906 0.031578 
299.100037 0.011065 
299.139679 0.253269 
299.162659 0.063341 
299.196777 0.010025 
300.121368 0.016753 
300.139221 0.051145 
300.159119 0.097907 
300.196594 0.017065 
300.217621 0.047926 
301.095398 0.036875 
301.119141 0.476062 
301.149841 0.805385 
301.166565 0.285656 
301.192078 0.299246 
302.100311 0.063163 
302.137848 0.413691 
302.153839 0.135023 
302.1745 0.173922 
303.07486 0.018354 
303.096527 0.014099 
303.111298 0.075863 
303.132812 0.588376 
303.169037 1.138537 
303.183563 0.268093 
303.207153 0.223481 
303.912933 0.00626 
303.972321 0.012407 
304.07428 0.050253 
304.104156 0.051026 
304.152496 0.166167 
304.178314 0.228688 
304.902344 0.007935 
304.969513 0.166415 
305.00293 0.018964 
305.036835 0.005622 
305.071899 0.044046 
305.090668 0.301365 
305.126007 0.419385 
305.152832 0.395336 
305.18515 1.742733 
305.988312 0.042588 
306.085541 0.210156 
306.189148 0.082945 
306.918335 0.005557 
306.934296 0.0068 
306.964142 0.172839 
307.000732 0.061784 
307.01825 0.510244 
307.105347 0.007652 
307.174347 0.509736 
309.147461 0.00873 
309.217651 0.012123 
310.120758 0.024958 
310.144012 0.065919 
310.178223 0.088589 
310.20108 0.026945 
310.843292 0.293888 
311.103943 0.025093 
311.141449 0.015776 
311.177155 0.036338 
312.122833 0.485199 
312.159241 0.121116 
312.179565 0.032581 
312.838654 0.562762 
313.121979 0.049742 
313.15564 0.331052 
313.175446 0.189766 
313.19455 0.010216 
313.212494 0.055047 
314.101105 0.32265 
314.137329 0.109503 
314.153564 0.030944 
314.174988 0.336518 
314.231873 1.9133 
315.097992 0.065439 
315.133698 0.599371 
315.170959 0.741593 
315.235565 0.297846 
316.079681 0.093746 
316.116425 0.374694 
316.134094 0.232361 
316.152405 0.061332 
316.177185 1.047959 
316.200684 0.029116 
316.904755 0.061849 
317.116425 0.242134 
317.149414 0.844353 
317.185547 0.129715 
317.211212 0.010588 
318.132812 0.213023 
319.165009 0.224223 
319.201752 0.900298 
319.299652 0.082724 
320.204407 0.03023 
322.72168 0.005721 
322.796844 0.005082 
322.821381 0.00496 
322.904541 0.006638 
325.185577 0.0104 
325.830597 0.010998 
326.837341 0.005688 
327.137024 0.197713 
327.157501 0.032921 
327.171906 0.160708 
327.19101 0.013827 
327.210052 0.62188 
327.22937 0.187013 
327.825928 0.18745 
328.116608 0.185153 
328.1539 0.243954 
328.170868 0.145578 
328.191437 0.113633 
328.211945 0.5493 
328.24826 0.555705 
328.833496 0.093439 
329.113251 0.368892 
329.149384 1.310076 
329.186035 1.10367 
329.217438 0.012117 
329.249268 0.06859 
329.283508 0.039565 
330.095642 0.082122 
330.131683 0.906697 
330.154846 0.2748 
330.170593 0.423614 
330.187958 0.189741 
330.206268 0.053905 
330.242523 0.012118 
330.279327 0.233973 
330.315643 0.017956 
330.934479 0.006873 
331.130127 0.351709 
331.165924 1.823318 
331.201141 0.804382 
331.262787 0.009159 
332.112213 0.028297 
332.14798 0.014828 
332.168671 0.052205 
332.18692 0.18122 
332.965424 0.02694 
334.84314 0.566059 
336.838715 0.5425 
341.107117 0.007256 
342.833405 0.254947 
344.828827 0.19299 
345.108612 0.02681 
345.151093 2.734018 
345.181854 3.449726 
345.21933 1.667929 
345.240997 0.664432 
345.27655 0.032992 
345.297791 0.739816 
345.334259 0.043638 
345.976654 0.544563 
346.091827 0.567823 
346.124542 1.673854 
346.159088 0.939728 
346.178894 1.669986 
346.222565 13.308069 
346.272583 0.817076 
346.310913 1.73667 
346.346985 1.428306 
346.595673 0.038552 
346.905121 0.011038 
346.974579 0.351291 
347.069153 0.026506 
347.107849 2.922031 
347.126099 0.620956 
347.161682 6.161299 
347.180023 1.869667 
347.197632 12.138394 
347.224091 2.519551 
347.25592 1.584011 
347.310486 0.402546 
347.350311 0.29001 
347.974915 0.015489 
348.105865 0.52938 
348.140045 4.168923 
348.164001 0.142281 
348.192352 9.661185 
348.21814 5.485381 
348.258026 0.199048 
348.287659 1.02579 
348.326111 0.805964 
349.142761 0.073218 
349.182312 100.0 
349.209808 2.855008 
349.234558 3.10529 
349.310028 0.026108 
350.945923 0.027094 
351.846313 0.333934 
352.854248 0.043111 
354.848633 0.057496 
356.085358 0.005 
364.914795 0.012166 
366.132477 0.018546 
367.84024 0.004876 
369.85788 0.005536 
370.844666 0.022179 
END IONS

