BEGIN IONS
PEPMASS=423.0
CHARGE=1+
COMPOUNDNAME=Massbank:KO002469 Blasticidin S
LIBRARYQUALITY=3
SMILES=NC(=N)N(C)CC[C@@H](N)CC(=O)N[C@@H](C=2)[C@@H](C(O)=O)O[C@H](C2)N(C=1)C(=O)N=C(N)C1
INCHIKEY=CXNPLSGKWMLZPZ-QOBDMFJFSA-N
INCHI=1S/C17H26N8O5/c1-24(16(20)21)6-4-9(18)8-12(26)22-10-2-3-13(30-14(10)15(27)28)25-7-5-11(19)23-17(25)29/h2-3,5,7,9-10,13-14H,4,6,8,18H2,1H3,(H3,20,21)(H,22,26)(H,27,28)(H2,19,23,29)
MSLEVEL=2
SOURCE_INSTRUMENT=ESI-LC-ESI-QQ
FILENAME=Massbank_ESI_positive_8_1_2014_peaks.mgf
SEQ=*..*
IONMODE=Positive
ORGANISM=MASSBANK
NAME=Massbank:KO002469 Blasticidin S [M+H]+
PI=Putative Massbank Match
DATACOLLECTOR=Massbank
PUBMED=N/A
SUBMITUSER=mwang87
TAGS=
SPECTRUMID=CCMSLIB00000217433
SCANS=8271
98.9 19802.0 
112.0 123762.5 
127.8 49505.0 
128.2 54455.5 
129.4 19802.0 
149.6 29703.0 
154.5 29703.0 
163.1 1351486.5 
164.4 14851.5 
171.3 183168.5 
180.3 183168.5 
185.3 450495.5 
194.0 24752.5 
194.5 29703.0 
203.1 59406.0 
207.5 69307.0 
213.4 29703.0 
219.4 14851.5 
222.1 178218.0 
225.8 19802.0 
227.1 34653.5 
229.9 19802.0 
244.3 29703.0 
253.1 24752.5 
261.3 366337.0 
265.1 54455.5 
268.3 123762.5 
273.7 9901.0 
287.5 39604.0 
293.5 69307.0 
295.7 227723.0 
306.4 168317.0 
312.6 3584162.0 
347.6 19802.0 
406.7 29703.0 
423.4 3252478.5 
END IONS

