BEGIN IONS
PEPMASS=1277.62
CHARGE=1+
COMPOUNDNAME=Dactinomycin
LIBRARYQUALITY=3
SMILES=N/A
INCHIKEY=RJURFGZVJUQBHK-UHFFFAOYSA-N
INCHI=InChI=1S/C62H86N12O16/c1-27(2)42-59(84)73-23-17-19-36(73)57(82)69(13)25-38(75)71(15)48(29(5)6)61(86)88-33(11)44(55(80)65-42)67-53(78)35-22-21-31(9)51-46(35)64-47-40(41(63)50(77)32(10)52(47)90-51)54(79)68-45-34(12)89-62(87)49(30(7)8)72(16)39(76)26-70(14)58(83)37-20-18-24-74(37)60(85)43(28(3)4)66-56(45)81/h21-22,27-30,33-34,36-37,42-45,48-49H,17-20,23-26,63H2,1-16H3,(H,65,80)(H,66,81)(H,67,78)(H,68,79)
MSLEVEL=2
SOURCE_INSTRUMENT=N/A-ESI-QFT
FILENAME=library_mgf.mgf
SEQ=*..*
IONMODE=positive
ORGANISM=MONA
NAME=Dactinomycin [M+Na]+
PI=MoNA
DATACOLLECTOR=MoNA:VF-NPL-QEHF000891
PUBMED=N/A
SUBMITUSER=mwang87
TAGS=
SPECTRUMID=CCMSLIB00004691954
SCANS=891
91.174576 0.15262 
91.467262 0.074505 
92.047386 0.228569 
93.723351 0.303165 
94.246765 0.175539 
94.382416 0.189424 
94.485916 0.182569 
95.702377 0.198837 
96.044853 0.298552 
96.0812 0.141197 
98.060318 0.824372 
98.09684 12.436045 
98.733299 0.167296 
98.913673 0.186938 
99.099991 0.149831 
99.283531 0.356689 
99.543907 0.201155 
100.039658 4.498506 
100.076202 0.077555 
100.718674 0.310581 
101.872368 0.185418 
102.83754 0.069521 
103.788506 0.36728 
105.143051 0.075738 
105.425842 0.0745 
107.297455 0.322181 
107.972015 0.301606 
108.081306 0.090368 
109.904045 0.067559 
110.096649 0.685059 
110.568893 0.075368 
112.037094 14.407205 
112.500557 0.10786 
114.09156 10.679513 
114.377792 0.069318 
116.80661 0.138779 
117.418449 0.070427 
118.284157 0.307265 
118.343857 0.349564 
120.090508 0.182354 
120.479828 0.154356 
121.038567 0.071188 
121.941483 0.1452 
122.096558 0.145298 
123.09182 0.236674 
124.036957 14.481745 
124.11219 12.289863 
124.153038 0.192781 
125.285362 0.19076 
126.078087 0.315759 
126.091606 0.291149 
127.050316 0.09345 
129.985321 0.285299 
130.353928 0.153423 
131.13652 0.06683 
131.930893 0.151712 
132.101883 17.650732 
133.105377 0.0847 
134.327759 0.269026 
135.851822 0.299045 
135.893616 0.260378 
136.03685 2.195534 
137.851074 0.201042 
138.05246 64.358116 
138.084335 0.06347 
138.091156 0.817327 
139.086319 0.313558 
140.06813 9.144205 
140.339645 0.193527 
140.813583 0.262358 
141.995026 0.084731 
142.122421 0.307632 
143.010269 0.381679 
143.459381 0.349733 
143.545227 0.292963 
144.54422 0.355922 
147.75798 0.188166 
148.089676 0.113187 
149.069031 0.122597 
151.085434 0.37703 
152.107193 0.572856 
152.287033 0.124255 
152.314072 0.161089 
153.748962 0.070989 
153.928497 0.105072 
154.086243 0.431369 
155.111465 0.184424 
155.117508 1.257142 
158.102005 0.263624 
161.068756 0.102019 
162.076416 0.979831 
162.677582 0.169364 
162.872421 0.198158 
163.084137 7.283733 
164.268845 0.093351 
164.314133 0.126636 
165.099915 0.760433 
165.142746 0.300485 
166.047318 3.152084 
166.083755 46.7089 
167.087448 0.087271 
169.133606 0.131739 
175.083862 0.985435 
176.351624 0.334272 
176.53949 0.193049 
177.099731 20.942219 
179.078735 0.530027 
179.116882 0.399785 
180.101288 0.080512 
181.037994 0.308869 
181.096588 0.095992 
181.813141 0.307587 
188.068222 3.619708 
189.994049 0.159764 
191.105591 0.264763 
191.115494 0.136732 
192.396225 0.07616 
193.058777 0.234528 
195.113007 0.206538 
195.148621 0.67148 
198.428925 0.11071 
199.107574 0.211005 
201.100266 0.214748 
202.084106 0.112472 
203.138672 0.235284 
204.583588 0.122971 
205.094818 0.48115 
205.565063 0.19642 
206.078735 22.216961 
207.073532 0.830629 
208.095139 0.120424 
209.089569 12.595864 
209.493835 0.170186 
213.344742 0.361876 
215.543289 0.276246 
216.083847 0.343914 
217.131104 2.236886 
219.110367 7.412636 
219.14624 0.188872 
219.794357 0.090837 
219.811417 0.823634 
219.823242 0.629066 
220.094208 1.758099 
220.105118 0.461092 
222.121307 5.431531 
222.211243 0.152082 
223.105133 100.0 
224.108795 4.242421 
226.463409 0.101982 
233.125824 0.672967 
235.140991 0.947763 
237.120697 39.730774 
237.841232 0.152481 
238.123795 0.446013 
239.081482 0.20165 
239.667709 0.098534 
241.098541 0.123748 
241.176514 0.077559 
242.044739 0.206023 
244.05986 0.07601 
245.124985 0.508548 
245.546234 0.088031 
245.59407 0.153663 
247.104904 1.189511 
249.084869 0.304643 
250.153366 0.39476 
253.097 0.629289 
255.139847 0.257637 
256.059418 0.194179 
259.367401 0.15312 
262.070587 0.212146 
262.152802 0.088967 
263.100128 18.584551 
263.136139 38.705227 
264.139862 0.290843 
265.097717 0.525428 
266.093567 0.175184 
267.07605 25.437307 
268.079742 1.590186 
268.111084 0.176451 
269.018982 0.096939 
269.322754 0.298772 
271.071045 0.114625 
273.764252 0.17606 
274.151855 1.711867 
276.168213 7.680271 
277.085022 0.300215 
277.100311 0.116812 
277.115295 11.43989 
277.171692 0.366561 
278.091583 0.332158 
278.18399 1.169906 
281.055511 0.260158 
281.091431 0.320745 
281.12851 0.1812 
282.652313 0.221734 
283.071136 0.317927 
285.087006 1.205149 
287.064392 0.242942 
287.079559 0.367569 
288.167908 0.16889 
289.057953 15.689085 
290.064636 1.995644 
290.14743 11.59435 
290.183533 0.434758 
291.150635 0.184653 
292.104431 0.074748 
292.162628 0.422679 
293.055328 12.103526 
294.058899 0.11489 
295.070862 0.115428 
296.104065 0.196954 
299.06604 0.169055 
304.16156 0.121985 
305.076538 0.341642 
306.063019 0.317433 
306.086426 2.242243 
307.06958 0.160663 
307.250885 0.164029 
307.696381 0.075479 
308.157684 9.249198 
310.082001 0.749065 
312.13504 0.075147 
315.368439 0.170825 
316.107544 0.126682 
316.162994 0.093104 
317.05304 0.599836 
317.07663 1.277498 
318.047913 0.318139 
318.084229 4.51734 
319.090332 0.392365 
320.102386 3.699985 
320.157532 63.058105 
320.524506 0.296235 
321.047882 2.064891 
321.070496 0.140269 
321.10553 0.078524 
321.160889 4.257323 
321.188965 0.546723 
322.116608 0.295811 
324.097931 0.178836 
326.565948 0.079676 
327.098267 0.382792 
328.068268 1.671716 
329.07608 3.16368 
330.083496 0.083089 
330.178925 0.081731 
332.06369 3.223669 
332.102234 0.237522 
333.048248 2.329733 
333.07251 0.216544 
333.188568 0.243574 
333.94632 0.099333 
334.080017 7.692159 
334.11792 0.078125 
334.137146 0.484544 
334.173157 7.0787 
336.097443 0.099412 
336.965637 0.16044 
337.081757 0.105907 
337.10434 0.211775 
342.083923 0.286919 
343.078979 1.466269 
343.488495 0.100834 
344.063934 2.086316 
344.100372 10.512642 
344.194122 1.728467 
345.070007 0.556481 
345.107056 7.133526 
346.079346 3.327594 
346.115387 2.298375 
346.137604 0.760084 
346.210266 6.847411 
347.086548 1.146399 
347.168213 3.169473 
347.205597 6.374922 
348.058929 2.722821 
348.096954 21.90132 
349.101379 3.27937 
350.112488 1.468371 
351.05835 4.276477 
352.09375 0.101939 
352.715393 0.333706 
354.460327 0.363501 
356.063965 5.086711 
357.108307 0.116113 
358.115082 0.196784 
360.09494 2.252269 
361.065582 0.188977 
362.074127 3.861512 
362.110504 20.378929 
363.077698 0.08411 
363.11441 0.336494 
366.107849 7.915655 
367.079498 2.240885 
367.11145 0.616683 
369.095245 4.345114 
370.078918 5.770726 
370.102936 3.392456 
371.084869 0.902093 
371.11084 8.715536 
372.095001 12.594778 
372.118042 0.389049 
373.102661 0.771374 
374.071808 0.452642 
375.082153 8.218109 
376.089539 5.059331 
377.123077 0.188807 
380.499725 0.23346 
381.094849 1.306434 
383.111328 0.833832 
384.09549 1.335873 
385.126526 0.189497 
386.110779 0.619104 
387.107269 0.769745 
388.089722 8.18231 
389.095856 1.066565 
389.122681 0.623383 
390.105164 5.643543 
390.753235 0.185135 
394.10321 4.988656 
395.10791 0.209305 
397.090424 6.09672 
399.078705 0.382154 
399.105591 13.203023 
399.141418 0.150189 
400.112793 7.241575 
401.121155 11.20993 
402.127563 0.197831 
404.226379 0.369303 
410.111908 0.084525 
411.105286 1.232333 
412.127502 0.425032 
413.121826 3.592507 
414.133209 0.371473 
415.101044 6.633843 
416.084045 8.041915 
417.202881 0.199099 
425.121857 3.580185 
426.12854 0.578699 
427.105164 1.493698 
427.13681 27.160452 
428.143127 11.131105 
429.120911 0.779003 
429.152374 14.885823 
430.156403 0.298188 
437.123444 0.392754 
441.149994 0.392346 
443.167908 42.048588 
444.101593 0.101652 
444.17215 6.211012 
445.11087 1.201498 
452.132385 1.008837 
453.115692 0.555405 
454.110657 0.191688 
454.146576 0.852785 
455.132294 1.022091 
455.166687 0.12958 
456.168762 0.080924 
468.163696 4.346848 
469.146454 4.124309 
471.126801 3.063545 
471.162079 0.084333 
472.128815 0.109984 
473.144257 0.303901 
480.164062 1.199205 
482.17981 1.139428 
483.162445 1.431186 
484.159302 1.126075 
487.157837 5.808808 
489.172516 0.418967 
496.15976 0.16428 
497.165955 0.257056 
498.173981 12.09196 
509.18219 0.234955 
510.176788 0.344791 
512.190125 1.242063 
514.168274 0.579368 
524.190002 5.848272 
525.193787 1.006232 
526.205017 8.689931 
527.209656 0.471474 
539.001892 0.303862 
540.220642 2.419211 
544.440979 0.329923 
552.93573 0.206158 
592.157715 0.129665 
607.029419 0.079669 
620.833557 0.114055 
636.700928 0.078343 
638.125244 0.463951 
675.355957 0.086309 
678.602783 0.192162 
711.211121 0.386572 
742.249512 0.121864 
780.894043 0.076853 
822.367676 0.194987 
866.104919 0.170357 
909.805603 0.187923 
914.933228 0.375716 
954.133484 0.2415 
955.304138 0.173442 
973.718811 0.156242 
992.726135 0.303529 
1018.594849 0.331957 
1049.437012 0.316938 
1078.500366 0.080991 
1085.039551 0.077916 
1128.494629 0.080788 
1146.924561 0.140319 
END IONS

