BEGIN IONS
PEPMASS=723.469
CHARGE=1+
COMPOUNDNAME=MoNA:941547 2-{6-[(2-{5`-[6-hydroxy-6-(hydroxymethyl)-3,5-dimethyltetrahydro-2h-pyran-2-yl]-2,3`-dimethyloctahydro-2,2`-bifuran-5-yl}-9-methoxy-2,4,10-trimethyl-1,6-dioxaspiro[4.5]dec-7-yl)methyl]-3-methyltetrahydro-2h-pyran-2-yl}propanoic acid
LIBRARYQUALITY=3
SMILES=N/A
INCHIKEY=DANUORFCFTYTSZ-UHFFFAOYSA-N
INCHI=InChI=1S/C40H68O11/c1-21-11-12-28(46-33(21)26(6)36(42)43)17-29-18-30(45-10)27(7)40(48-29)25(5)19-38(9,51-40)32-13-14-37(8,49-32)35-23(3)16-31(47-35)34-22(2)15-24(4)39(44,20-41)50-34/h21-35,41,44H,11-20H2,1-10H3,(H,42,43)
MSLEVEL=2
SOURCE_INSTRUMENT=LC-ESI-QFT-LC-ESI-QFT
FILENAME=output_mgf.mgf
SEQ=*..*
IONMODE=
ORGANISM=MONA
NAME=MoNA:941547 2-{6-[(2-{5`-[6-hydroxy-6-(hydroxymethyl)-3,5-dimethyltetrahydro-2h-pyran-2-yl]-2,3`-dimethyloctahydro-2,2`-bifuran-5-yl}-9-methoxy-2,4,10-trimethyl-1,6-dioxaspiro[4.5]dec-7-yl)methyl]-3-methyltetrahydro-2h-pyran-2-yl}propanoic acid [M-H]-
PI=MoNA
DATACOLLECTOR=MoNA
PUBMED=N/A
SUBMITUSER=mwang87
TAGS=
SPECTRUMID=CCMSLIB00000568403
SCANS=5654
55.0189 18.404707 
57.0346 100.0 
58.006 17.89209 
59.0138 7.926482 
65.0398 1.114531 
67.0189 0.991976 
69.0346 8.940566 
71.0139 5.05427 
71.0503 16.170551 
73.0296 9.577564 
80.0267 0.712166 
81.0345 4.002699 
83.0503 9.484615 
85.0295 20.332716 
85.0659 3.095887 
87.0451 30.577268 
93.0346 3.080892 
93.0709 1.420582 
95.0502 13.279499 
97.0659 7.642539 
99.0452 6.832425 
99.0815 3.73029 
101.0608 6.367196 
105.0709 0.733793 
107.0502 7.005733 
109.0658 15.664278 
111.0452 3.460381 
111.0815 14.430652 
113.0608 1.038595 
120.058 0.870959 
121.0659 11.592563 
122.0373 1.027349 
123.045 0.920846 
123.0816 6.11853 
125.0605 0.962563 
125.0972 1.30812 
133.0657 1.16288 
135.0815 8.587127 
137.0606 3.437311 
137.0969 1.484888 
141.0921 0.747731 
147.0815 1.152018 
149.0971 1.271401 
151.0766 1.056858 
END IONS

