BEGIN IONS
PEPMASS=174.0
CHARGE=1+
COMPOUNDNAME=MoNA:2237798 Citrulline
LIBRARYQUALITY=3
SMILES=N/A
INCHIKEY=RHGKLRLOHDJJDR-BYPYZUCNSA-N
INCHI=InChI=1S/C6H13N3O3/c7-4(5(10)11)2-1-3-9-6(8)12/h4H,1-3,7H2,(H,10,11)(H3,8,9,12)/t4-/m0/s1
MSLEVEL=2
SOURCE_INSTRUMENT=LC-ESI-QQ-LC-ESI-QQ
FILENAME=output_mgf.mgf
SEQ=*..*
IONMODE=
ORGANISM=MONA
NAME=MoNA:2237798 Citrulline [M-H]-
PI=MoNA
DATACOLLECTOR=MoNA
PUBMED=N/A
SUBMITUSER=mwang87
TAGS=
SPECTRUMID=CCMSLIB00000573827
SCANS=11078
42.2 25.088339 
59.2 6.007067 
83.2 14.840989 
85.4 4.240283 
113.1 4.240283 
114.9 15.547703 
130.8 100.0 
131.8 27.208481 
142.1 2.473498 
END IONS

