BEGIN IONS
PEPMASS=323.02
CHARGE=1+
COMPOUNDNAME=Massbank:BML00960 Chloramphenicol
LIBRARYQUALITY=3
SMILES=C1=CC(=CC=C1[C@H]([C@@H](CO)NC(=O)C(Cl)Cl)O)[N+](=O)[O-]
INCHIKEY=WIIZWVCIJKGZOK-RKDXNWHRSA-N
INCHI=1S/C11H12Cl2N2O5/c12-10(13)11(18)14-8(5-16)9(17)6-1-3-7(4-2-6)15(19)20/h1-4,8-10,16-17H,5H2,(H,14,18)/t8-,9-/m1/s1
MSLEVEL=2
SOURCE_INSTRUMENT=ESI-LC-ESI-QTOF
FILENAME=Massbank_ESI_positive_8_1_2014_peaks.mgf
SEQ=*..*
IONMODE=Positive
ORGANISM=MASSBANK
NAME=Massbank:BML00960 Chloramphenicol [M+H]+
PI=Putative Massbank Match
DATACOLLECTOR=Massbank
PUBMED=N/A
SUBMITUSER=mwang87
TAGS=
SPECTRUMID=CCMSLIB00000205127
SCANS=387
150.0251 21.0 
165.0646 21.0 
274.9952 236.0 
275.0117 22.0 
275.0447 30.0 
305.0053 33.0 
END IONS

