BEGIN IONS
PEPMASS=288.087
CHARGE=1+
COMPOUNDNAME=Emodin
LIBRARYQUALITY=3
SMILES=N/A
INCHIKEY=RHMXXJGYXNZAPX-UHFFFAOYSA-N
INCHI=InChI=1S/C15H10O5/c1-6-2-8-12(10(17)3-6)15(20)13-9(14(8)19)4-7(16)5-11(13)18/h2-5,16-18H,1H3
MSLEVEL=2
SOURCE_INSTRUMENT=N/A-ESI-QFT
FILENAME=library_mgf.mgf
SEQ=*..*
IONMODE=positive
ORGANISM=MONA
NAME=Emodin [M+NH4]+
PI=MoNA
DATACOLLECTOR=MoNA:VF-NPL-QEHF011222
PUBMED=N/A
SUBMITUSER=mwang87
TAGS=
SPECTRUMID=CCMSLIB00004702285
SCANS=11222
50.132343 0.053695 
50.251549 0.062983 
50.50367 0.046759 
51.361362 0.063213 
51.563278 0.054833 
52.677826 0.04628 
52.744801 0.059113 
53.002964 0.337332 
53.47187 0.055488 
54.40377 0.050942 
55.018578 2.558974 
55.054951 1.593195 
55.761478 0.058064 
55.846107 0.054123 
56.050201 0.058678 
56.311523 0.062737 
56.327641 0.061357 
56.467239 0.048283 
56.965408 0.048108 
56.967339 0.065424 
57.034115 0.076196 
57.070625 44.540672 
57.92395 0.046294 
58.065861 11.622285 
58.073952 1.120707 
59.049744 0.079736 
59.061069 0.055825 
59.301151 0.063471 
60.045063 0.171386 
61.011326 0.073913 
61.81908 0.043115 
62.060757 1.808479 
62.712585 0.061709 
62.98238 0.150246 
63.063534 0.043686 
63.069473 0.044891 
63.397694 0.040936 
64.209335 0.0646 
64.705276 0.038927 
64.928246 0.055778 
66.245239 0.041545 
66.253845 0.050339 
66.432785 0.046343 
67.054878 1.025719 
67.815811 0.05804 
68.050163 0.068634 
69.070526 1.622122 
70.065788 30.823547 
71.063194 0.060213 
71.069107 0.650672 
71.086182 29.323404 
72.045013 2.341377 
72.08139 0.42719 
72.08947 0.787486 
74.096848 0.045393 
78.147995 0.043993 
79.021767 0.91097 
79.054733 0.149705 
81.070442 1.034602 
81.762459 0.044342 
83.049568 0.045059 
83.085999 0.483318 
83.404068 0.059106 
84.081223 0.081198 
84.569389 0.045799 
85.065231 0.24124 
85.101692 14.381252 
85.104301 0.083925 
85.219414 0.059175 
86.035225 0.067976 
86.060524 1.390623 
86.096909 2.681519 
86.104996 0.327629 
86.871407 0.066088 
86.874306 0.072145 
88.02195 1.00763 
88.07618 74.378365 
88.106277 0.045959 
88.250221 0.075097 
88.951187 0.038883 
89.035484 0.061839 
89.079491 2.278629 
90.641403 0.059869 
91.054688 0.044429 
93.070297 0.686307 
93.544563 0.039197 
95.012924 0.051708 
95.085892 1.530551 
96.044807 0.049517 
97.06514 0.049518 
97.101555 0.047067 
97.696114 0.053945 
98.097069 0.064574 
98.411896 0.040634 
98.61544 0.041499 
98.975746 7.82784 
100.07608 4.708678 
100.210518 0.050615 
100.640503 0.067072 
101.003555 0.984668 
101.079475 0.06665 
101.691284 0.052639 
101.950157 1.675711 
102.091675 8.080238 
103.018532 0.060552 
103.095192 0.06686 
103.667503 0.044314 
103.971146 0.066126 
104.070679 0.109432 
105.070297 0.147784 
106.08654 100.0 
107.08606 0.512633 
107.089737 3.570437 
109.101273 0.766623 
111.080475 0.07508 
111.338402 0.064269 
112.422272 0.043354 
112.704727 0.052353 
113.059898 1.231555 
113.214386 0.064972 
114.387405 0.059977 
116.053001 2.541124 
116.070908 0.072724 
116.986099 7.567258 
117.650291 0.073211 
117.65506 0.064954 
118.086357 1.537619 
118.399857 0.066939 
118.887543 0.048592 
119.049171 0.047243 
119.085526 0.195169 
119.96048 0.643908 
120.914864 0.058265 
121.101341 0.098382 
121.345154 0.060036 
124.493912 0.043188 
125.562645 0.070251 
128.062134 0.147083 
129.773895 0.0618 
130.486633 0.065055 
131.08551 0.041593 
132.763992 0.073009 
133.101273 0.123955 
134.996384 4.51074 
135.044022 0.08969 
135.117065 0.131985 
137.132401 0.079461 
137.970978 0.277236 
138.01239 0.050334 
138.931091 0.061544 
140.28627 0.064887 
142.650467 0.051897 
143.085434 0.833777 
147.044357 0.063055 
147.974548 0.111442 
148.024872 0.256356 
148.385101 0.054336 
149.012115 0.092147 
150.950928 0.209513 
152.946243 0.114804 
153.006912 0.239945 
153.070099 0.269704 
155.042175 0.049044 
155.085388 0.086976 
157.065186 0.053287 
158.039078 0.053489 
159.04361 0.069252 
159.080017 0.157005 
160.07547 0.207952 
162.556885 0.060036 
163.985413 0.065204 
165.800125 0.055781 
165.990921 0.06505 
168.630692 0.058957 
168.961578 0.193429 
169.062897 0.060391 
170.051498 0.044804 
170.957153 0.875122 
170.964294 0.052741 
171.0439 0.135601 
171.080215 1.973608 
172.083832 0.049861 
173.059937 0.106801 
175.038895 14.874202 
175.047318 0.094151 
176.042252 0.840222 
176.989059 1.902409 
177.974319 0.165774 
179.953659 0.123494 
180.09613 0.068867 
180.206131 0.071153 
181.064789 0.819856 
181.985962 0.191939 
182.479965 0.047219 
184.051682 0.05003 
184.169998 0.146476 
185.059647 0.626846 
187.075302 1.32527 
188.078232 0.077788 
188.153961 0.062335 
189.017883 0.072378 
189.054337 0.588098 
190.107285 0.891654 
190.158951 0.061396 
194.999771 4.919996 
196.002304 0.068888 
196.996017 0.100623 
197.91011 0.050793 
197.974182 2.767887 
199.039032 1.746446 
199.06459 0.055945 
199.075272 2.852627 
199.273254 0.065691 
201.054199 0.63751 
201.090958 0.107875 
202.059113 0.054677 
202.229904 0.068535 
203.0336 0.921848 
204.10144 0.072691 
206.691956 0.074751 
209.819534 0.054835 
211.075775 0.209776 
212.381546 0.080554 
213.010498 0.177829 
213.054443 0.803753 
213.090164 0.079218 
215.033676 0.076284 
215.069977 1.914571 
215.552444 1.66071 
215.560196 1.621605 
215.984695 0.683529 
216.073227 0.157123 
216.173676 0.043612 
217.049286 0.508424 
217.085617 2.371006 
218.763641 0.046341 
222.898956 0.240745 
223.158401 0.064875 
225.054382 0.061301 
226.061768 0.072705 
226.21637 0.972655 
226.253006 0.409083 
227.058838 0.116466 
227.070023 11.13722 
228.073685 1.286897 
228.964783 0.956357 
229.049454 4.126171 
229.074738 1.578031 
229.085739 0.144154 
230.053177 0.890664 
230.189148 0.06299 
232.68129 0.045651 
236.180847 0.044173 
238.251465 0.080006 
238.913193 0.116859 
239.069992 2.316155 
240.041748 0.413535 
240.075165 0.136258 
240.231415 0.073192 
240.908798 1.798688 
241.049332 5.376 
241.073395 0.052344 
241.08551 2.70367 
241.234711 0.064189 
242.05661 1.933151 
242.089645 0.138485 
243.063873 1.300917 
244.06929 0.051161 
244.263306 1.926527 
245.044495 0.294976 
245.080536 6.74492 
246.083817 0.409354 
247.085022 0.933243 
247.906204 0.059032 
251.070084 0.164529 
253.049133 0.315022 
254.056915 0.812949 
255.064911 2.335493 
255.119339 0.068663 
255.941879 0.072515 
256.072418 3.254017 
256.942047 0.0534 
257.044373 3.925282 
257.080322 3.359609 
257.135681 0.055689 
258.051666 2.206749 
258.083618 0.18907 
258.841034 0.059063 
259.05957 0.163021 
266.243408 0.045886 
268.262787 0.566051 
268.299316 0.161154 
269.044403 1.151103 
269.080688 6.296236 
269.207458 0.062906 
270.051514 1.826249 
270.085968 1.883143 
270.15567 0.067438 
270.278748 14.988756 
271.058167 24.218016 
271.151245 0.149094 
271.282135 2.452827 
272.066559 12.988046 
273.039429 0.88734 
273.070618 1.108031 
274.952667 0.187224 
282.454498 0.040228 
282.920258 0.089888 
286.079193 11.075493 
286.130493 0.284997 
286.253113 0.794841 
286.273254 0.475837 
286.292877 0.048276 
286.310211 1.793415 
286.95282 0.071075 
286.97345 0.046788 
287.054749 24.527636 
287.081635 3.783627 
287.108276 1.331399 
287.127075 6.799884 
287.145935 2.440147 
287.183105 0.461066 
287.314484 0.12128 
288.059235 4.575391 
288.083282 0.046477 
288.09552 0.161487 
288.130127 0.399804 
288.180176 0.656551 
288.196747 0.142972 
288.231873 2.337778 
288.289276 98.635704 
288.818604 0.069898 
289.070526 0.258051 
289.125336 3.422636 
289.161652 6.183947 
289.234039 0.068485 
289.292725 18.355047 
289.310059 0.095505 
290.164581 0.112197 
290.248291 0.10704 
293.113556 0.047928 
295.671692 0.055099 
297.39743 0.040428 
301.069153 0.083588 
301.543915 0.060657 
308.841827 0.046534 
309.890656 0.050962 
END IONS

