BEGIN IONS
PEPMASS=407.221
CHARGE=1+
COMPOUNDNAME=MoNA:955005 Lincomycin
LIBRARYQUALITY=3
SMILES=N/A
INCHIKEY=OJMMVQQUTAEWLP-UHFFFAOYSA-N
INCHI=InChI=1S/C18H34N2O6S/c1-5-6-10-7-11(20(3)8-10)17(25)19-12(9(2)21)16-14(23)13(22)15(24)18(26-16)27-4/h9-16,18,21-24H,5-8H2,1-4H3,(H,19,25)
MSLEVEL=2
SOURCE_INSTRUMENT=LC-ESI-QFT-LC-ESI-QFT
FILENAME=output_mgf.mgf
SEQ=*..*
IONMODE=
ORGANISM=MONA
NAME=MoNA:955005 Lincomycin [M+H]+
PI=MoNA
DATACOLLECTOR=MoNA
PUBMED=N/A
SUBMITUSER=mwang87
TAGS=
SPECTRUMID=CCMSLIB00000569164
SCANS=6415
51.0229 0.141219 
53.0022 4.674656 
53.0386 1.96989 
53.9975 1.051226 
54.0339 7.134291 
55.0417 3.50495 
55.0543 10.05519 
56.0495 4.244521 
57.0573 2.388182 
57.9872 0.982254 
58.0651 2.452772 
61.0107 0.469001 
65.0386 5.0577 
67.0417 33.442311 
67.0542 4.481134 
68.0495 59.187517 
69.0573 1.079259 
69.0699 1.197402 
70.0651 19.448662 
78.0086 0.252151 
79.0542 2.052118 
80.0495 9.326361 
81.0573 5.47264 
82.0651 100.0 
83.0729 5.072826 
84.0808 0.995362 
94.0652 3.439178 
95.0492 0.97331 
95.0732 0.188725 
96.0808 9.670401 
105.0447 0.241313 
126.1278 0.256555 
END IONS

