BEGIN IONS
PEPMASS=578.355
CHARGE=1+
COMPOUNDNAME=destruxin A
LIBRARYQUALITY=3
SMILES=N/A
INCHIKEY=XIYSEKITPHTMJT-UHFFFAOYSA-N
INCHI=InChI=1S/C29H47N5O7/c1-9-12-21-27(38)34-16-11-13-20(34)26(37)31-23(18(5)10-2)28(39)33(8)24(17(3)4)29(40)32(7)19(6)25(36)30-15-14-22(35)41-21/h9,17-21,23-24H,1,10-16H2,2-8H3,(H,30,36)(H,31,37)
MSLEVEL=2
SOURCE_INSTRUMENT=N/A-ESI-QFT
FILENAME=library_mgf.mgf
SEQ=*..*
IONMODE=positive
ORGANISM=MONA
NAME=destruxin A [M+H]+
PI=MoNA
DATACOLLECTOR=MoNA:VF-NPL-QEHF017768
PUBMED=N/A
SUBMITUSER=mwang87
TAGS=
SPECTRUMID=CCMSLIB00004708831
SCANS=17768
50.000145 0.02997 
50.720863 0.028879 
51.023533 0.030582 
51.443981 0.067721 
51.531612 0.031182 
51.596279 0.050484 
51.805176 0.042636 
51.973495 0.047511 
52.613056 0.030906 
52.921825 0.034656 
53.039188 0.040228 
53.069489 0.028161 
53.228676 0.028943 
54.618526 0.048584 
55.018173 4.725066 
55.05455 0.053788 
55.206177 0.046905 
55.413147 0.03232 
55.546818 0.03499 
55.617714 0.044214 
56.049877 0.166876 
56.38752 0.045757 
56.451584 0.028556 
57.002884 0.041345 
57.482964 0.044238 
57.857353 0.046223 
58.065414 64.169067 
58.095036 0.039581 
58.440117 0.038187 
58.57642 0.036605 
58.604073 0.053391 
58.740696 0.030074 
59.068748 1.26461 
59.292339 0.037002 
59.487164 0.032443 
59.778183 0.03315 
60.067116 0.040723 
60.319889 0.055353 
61.02869 0.044432 
62.615448 0.044564 
63.210976 0.025581 
63.348042 0.026588 
65.210571 0.041673 
65.570763 0.051691 
65.713066 0.03233 
66.401031 0.038562 
66.433357 0.033502 
67.075523 0.025742 
68.049599 0.26386 
68.775696 0.039934 
69.517464 0.038595 
69.872169 0.056271 
70.065224 10.991892 
70.978767 0.028659 
71.049232 4.001299 
71.068192 0.041405 
71.345322 0.030921 
71.45668 0.04298 
71.6912 0.054417 
72.044472 0.561467 
72.12455 0.041378 
73.028427 1.678192 
73.755646 0.033622 
73.800972 0.03741 
73.868294 0.037116 
74.090401 0.04243 
74.8162 0.033991 
75.356239 0.034681 
76.2342 0.034108 
76.643539 0.038995 
78.508659 0.052364 
80.268372 0.048905 
80.326622 0.04256 
80.343651 0.044772 
80.903549 0.031646 
81.033577 1.391557 
82.267624 0.045667 
82.269714 0.036887 
82.630516 0.043163 
83.225525 0.041644 
84.080727 0.307479 
86.060066 13.131585 
86.096458 17.841213 
86.853401 0.049674 
87.057663 0.053973 
87.099854 0.433929 
88.039757 0.035123 
88.308647 0.050748 
89.143806 0.03318 
89.706741 0.033206 
91.020737 0.029528 
91.118973 0.044915 
91.843201 0.045537 
94.367958 0.050168 
94.396004 0.044394 
94.643425 0.036611 
96.044502 0.067814 
96.195068 0.040114 
96.404633 0.043386 
97.232109 0.038833 
98.059998 0.381471 
98.096512 0.094148 
98.617157 0.042204 
98.831543 0.040625 
99.214058 0.034689 
100.039337 6.80998 
100.075798 0.229343 
101.004837 0.033739 
101.054512 0.056696 
101.367538 0.031006 
101.62458 0.042364 
101.893791 0.05773 
103.086281 0.040213 
103.740479 0.047371 
103.795685 0.052438 
103.872955 0.030413 
105.867233 0.044402 
106.149277 0.051276 
107.841591 0.030891 
108.512192 0.043631 
110.252251 0.044434 
110.511292 0.039211 
111.006363 0.034539 
111.550247 0.045346 
112.075645 0.056529 
112.971069 0.028615 
113.059685 2.232704 
114.055 12.619973 
114.091385 1.814866 
115.058357 0.116451 
115.086929 0.04332 
118.761429 0.045517 
121.177643 0.043482 
123.290848 0.030034 
125.059746 2.283233 
125.071068 0.047425 
126.127785 4.683391 
128.070648 0.431841 
130.326767 0.055238 
131.139847 0.039794 
131.570709 0.041615 
131.732147 0.052144 
132.592529 0.03317 
134.30365 0.053739 
134.791168 0.0485 
136.931488 0.061741 
137.070999 0.060709 
137.341431 0.031107 
138.091415 0.492273 
138.127899 0.409777 
140.060135 0.038247 
140.07164 0.034273 
140.10701 2.477169 
140.190292 0.054143 
140.755371 0.037731 
141.054657 5.891493 
141.230743 0.037403 
142.344299 0.043567 
143.20871 0.046189 
144.520538 0.054383 
146.03978 0.032132 
146.187561 0.055349 
147.476318 0.031412 
150.091354 7.672127 
151.09494 0.074278 
152.673615 0.030859 
153.054672 3.76107 
154.324966 0.05597 
155.081467 0.427942 
155.117645 0.126374 
156.102051 0.039469 
156.432541 0.035283 
157.097183 48.295242 
157.333328 0.031153 
158.100616 3.066718 
158.117691 0.248533 
159.359009 0.03821 
164.18277 0.0539 
164.555725 0.044224 
166.086349 6.961643 
166.122635 0.401402 
166.94725 0.031205 
167.089722 0.05581 
168.102005 16.784033 
169.09726 1.774369 
169.105209 1.025553 
170.081177 11.848206 
171.084641 0.239452 
172.097183 0.046737 
173.406113 0.077684 
175.107834 10.444667 
176.102844 0.037223 
176.111664 0.21048 
178.086319 100.0 
179.089813 9.408272 
180.102142 0.108148 
181.109741 0.108303 
181.861893 0.04584 
182.909454 0.035118 
183.149323 2.166126 
185.324051 0.048939 
186.22908 0.044683 
187.106628 0.049485 
188.091156 0.037106 
188.924408 0.043118 
189.032623 0.040594 
190.724838 0.033389 
191.74086 0.044864 
194.411728 0.037679 
195.112976 0.337636 
196.096909 16.394802 
197.100327 0.953927 
198.632584 0.057427 
202.319733 0.037294 
205.295227 0.043261 
207.406738 0.052048 
209.128601 0.071992 
210.113083 0.271719 
210.148926 2.889853 
212.578308 2.744406 
212.587601 3.855669 
213.021881 0.051571 
213.459961 0.033069 
219.250244 0.044485 
222.482742 0.028632 
223.3871 0.043034 
224.091629 0.034355 
225.159714 0.969065 
227.13913 2.059638 
229.275314 0.041484 
234.193375 0.042016 
237.466141 0.035068 
238.107559 1.689855 
238.271622 0.032845 
238.609589 0.031193 
239.139145 18.944326 
240.142365 1.284365 
246.21106 0.039552 
253.118301 0.032117 
254.845245 0.044698 
255.134064 14.221853 
256.13739 1.047869 
263.175568 5.971608 
263.212616 0.042909 
264.179016 0.287802 
266.149963 0.173494 
267.134064 10.697483 
268.137451 0.693225 
273.144714 0.172691 
277.889252 0.039991 
280.048157 0.045607 
280.14566 0.04794 
281.185944 0.882031 
296.295105 0.041494 
299.138214 0.035113 
301.654053 0.030656 
302.398712 0.049602 
304.168182 0.053608 
304.185913 0.035607 
305.270264 0.042762 
307.201172 0.286615 
312.584473 0.041469 
313.765686 0.043411 
314.935852 0.048001 
319.575073 0.037417 
323.440063 0.033256 
324.191681 6.778971 
324.727814 0.05838 
325.194946 0.803335 
326.62674 0.033721 
332.802155 0.04652 
334.335541 0.054937 
335.906647 0.031735 
339.114227 0.054867 
344.038055 0.028839 
344.634399 0.033779 
346.771027 0.038029 
348.27655 0.041203 
352.186462 0.139203 
352.222931 9.970013 
352.480255 0.04444 
353.226044 1.2359 
373.211761 0.047874 
374.20752 0.059091 
376.39505 0.063745 
378.603729 0.029966 
380.939575 0.044854 
390.510254 0.033574 
395.936554 0.033053 
401.759735 0.055465 
406.167358 0.028804 
407.750183 0.030755 
411.730988 0.031016 
415.174591 0.049814 
419.508881 0.034352 
437.276062 5.094495 
438.279633 0.612759 
440.475739 0.052998 
461.386322 0.037227 
465.664734 0.041721 
465.895111 0.028634 
468.170868 0.042585 
478.357605 0.033997 
478.796478 0.046247 
496.693481 0.05711 
499.713379 0.030774 
518.428162 0.042271 
521.027588 0.038082 
527.571899 0.035644 
535.312683 0.030354 
537.653503 0.045949 
554.409119 0.046484 
562.878357 0.03208 
575.039185 0.045276 
584.891907 0.049927 
595.352051 0.045403 
596.412109 0.071144 
597.319946 0.046756 
597.705994 0.041137 
600.795776 0.052362 
END IONS

