BEGIN IONS
PEPMASS=1914.5
CHARGE=1+
COMPOUNDNAME=Teichomycin
LIBRARYQUALITY=3
SMILES=N/A
INCHIKEY=BJNLLBUOHPVGFT-QRZIFLFXSA-N
INCHI=InChI=1S/C88H97Cl2N9O33/c1-3-4-5-6-7-8-9-10-60(108)94-68-74(113)71(110)58(32-101)129-87(68)132-78-55-26-40-27-56(78)126-52-18-14-38(24-47(52)90)77(131-86-67(92-34(2)103)73(112)70(109)57(31-100)128-86)69-84(121)98-66(85(122)123)45-29-42(105)30-54(127-88-76(115)75(114)72(111)59(33-102)130-88)61(45)44-23-37(13-15-49(44)106)63(81(118)99-69)96-83(120)65(40)97-82(119)64-39-21-41(104)28-43(22-39)124-53-25-36(12-16-50(53)107)62(91)80(117)93-48(79(116)95-64)20-35-11-17-51(125-55)46(89)19-35/h11-19,21-30,48,57-59,62-77,86-88,100-102,104-107,109-115H,3-10,20,31-33,91H2,1-2H3,(H,92,103)(H,93,117)(H,94,108)(H,95,116)(H,96,120)(H,97,119)(H,98,121)(H,99,118)(H,122,123)/t48-,57-,58-,59-,62-,63-,64+,65-,66-,67-,68-,69+,70-,71-,72-,73-,74-,75+,76+,77-,86+,87+,88+/m1/s1
MSLEVEL=2
SOURCE_INSTRUMENT=N/A-ESI-QFT
FILENAME=library_mgf.mgf
SEQ=*..*
IONMODE=positive
ORGANISM=MONA
NAME=Teichomycin [M+K]+
PI=MoNA
DATACOLLECTOR=MoNA:VF-NPL-QEHF027956
PUBMED=N/A
SUBMITUSER=mwang87
TAGS=
SPECTRUMID=CCMSLIB00004721537
SCANS=27956
131.787613 0.118646 
133.178909 0.116816 
135.41304 0.137963 
135.702698 0.128795 
138.026382 0.125467 
138.054916 100.0 
138.061066 1.28962 
139.058212 6.665288 
139.697708 0.124112 
140.968781 0.126441 
141.06987 0.131972 
141.884155 0.114686 
144.06546 94.060822 
145.068893 5.576479 
145.529373 0.140725 
147.091537 0.155977 
153.033905 0.129124 
153.931824 0.144966 
155.479507 0.116232 
158.259262 0.12934 
158.805603 0.120472 
159.31337 0.131691 
159.9702 0.117257 
163.718796 0.119051 
167.529007 0.112307 
168.06543 7.17976 
169.064682 2.884123 
170.067612 0.237203 
171.126816 0.119957 
172.169586 1.09416 
176.443359 0.11722 
181.893097 0.110414 
185.030899 0.125389 
185.059525 0.133769 
186.075912 2.000645 
193.76384 0.150823 
197.059677 6.536657 
199.025269 0.118409 
200.687347 0.128596 
202.758423 0.112566 
204.086685 1.530866 
204.837555 0.13707 
208.185196 0.130468 
211.164627 0.118024 
212.070526 0.732463 
213.054291 4.038177 
214.086395 0.503866 
214.946274 0.159391 
215.070023 10.655214 
215.311066 0.118091 
216.073837 0.2588 
216.376892 0.12619 
221.583664 0.115033 
224.069992 0.714035 
225.054688 0.460908 
226.068253 0.207421 
227.070236 1.073194 
227.263733 0.125218 
236.501953 0.104686 
238.050278 0.301439 
239.080292 0.119855 
240.065277 18.061863 
241.049469 0.498481 
241.06955 1.804748 
241.096176 0.154096 
242.081009 30.613382 
243.084381 4.503948 
244.078644 0.259052 
244.364609 0.112433 
247.43428 0.133158 
248.16391 0.262619 
250.179977 22.300058 
251.183594 2.37211 
251.486404 0.127094 
252.065186 2.078892 
253.049255 3.368219 
254.081131 0.259271 
254.429596 0.121153 
257.091644 9.001133 
258.076599 0.130004 
258.09552 0.436712 
259.352783 0.109699 
259.50058 0.144525 
261.947235 0.128131 
262.047211 1.980258 
262.322693 0.119048 
263.591919 0.127629 
264.062805 2.053928 
264.19574 4.633698 
265.070801 0.856288 
266.078339 2.628883 
268.060059 5.431763 
269.065094 0.388308 
272.427887 0.132234 
274.046051 0.411294 
275.03064 0.843192 
277.342377 0.125901 
279.073486 2.779129 
280.058807 0.311139 
280.555817 0.123745 
281.089569 2.044008 
282.076019 0.230058 
285.086823 2.680202 
286.070679 4.542252 
290.042236 0.192453 
291.074127 0.159841 
292.058716 0.701224 
292.32312 0.139351 
297.060089 0.337619 
298.046082 0.120907 
299.102142 0.583455 
300.682861 0.122014 
300.816986 0.117931 
300.94339 0.122849 
301.996765 0.124155 
303.097382 3.844641 
304.101166 0.145895 
304.164337 0.839309 
304.18927 0.913174 
307.070282 0.160759 
308.053345 1.118287 
308.075958 0.34297 
308.426605 0.125783 
310.068024 0.20507 
313.695435 0.123737 
313.994598 0.270465 
314.019623 0.336355 
314.993774 0.300038 
315.025909 0.41767 
317.009949 0.142658 
319.068176 0.13901 
320.076904 0.138053 
320.101715 0.319132 
321.08374 1.862086 
321.103638 0.154053 
322.079102 0.199601 
322.856903 0.144034 
323.098389 0.124221 
325.080292 0.504732 
329.010468 0.115436 
329.07663 6.940577 
330.079254 0.323109 
332.266907 0.120025 
335.060577 0.13822 
336.094727 1.272277 
337.102081 0.568521 
338.11084 10.052805 
339.094482 1.471632 
339.114868 0.169712 
340.278534 0.136123 
342.536652 0.131161 
344.094879 0.168174 
348.095154 0.147083 
349.079132 2.229521 
357.040833 0.130606 
360.588043 0.127251 
362.076172 0.156327 
364.089935 0.496746 
365.073792 3.532619 
366.10553 14.07849 
367.087646 0.936028 
367.110565 0.896 
371.061615 0.165473 
378.278046 0.120108 
382.007294 0.127583 
382.10025 2.04219 
393.068481 0.129064 
399.600525 0.126607 
410.094025 0.186813 
411.717163 0.169266 
447.346771 0.129085 
448.707001 0.1275 
452.911835 0.123812 
453.115906 0.13535 
456.802246 0.12267 
463.022766 0.194027 
479.046844 0.114405 
483.163788 0.152209 
489.671753 0.142308 
493.03241 0.16335 
498.66394 0.120645 
504.533234 0.117452 
509.046082 0.685893 
511.044586 0.128441 
511.709595 0.111761 
521.027893 0.336236 
542.783691 0.135143 
555.277527 0.120683 
560.036255 0.115243 
586.060425 0.12771 
587.770081 0.135618 
596.013245 0.13583 
610.166077 0.126096 
626.561707 0.116181 
635.480957 0.128796 
642.820312 0.114349 
651.105591 0.112092 
654.070251 0.13406 
661.27124 0.128263 
679.954468 0.11733 
688.089294 0.135259 
689.086914 0.249991 
692.100586 0.262386 
693.080566 0.165386 
694.114197 0.124552 
704.092163 0.535193 
705.096497 0.284651 
706.10968 1.770228 
707.121704 0.223411 
708.109253 1.75837 
709.122925 0.141187 
710.11377 0.224644 
712.339844 0.123568 
713.614929 0.163805 
713.930725 1.199626 
716.09082 0.141336 
717.09906 0.177897 
718.098389 0.314403 
719.103821 0.140513 
721.126465 0.133925 
722.119568 0.142007 
723.130493 0.400573 
725.142395 0.130455 
730.551819 0.117649 
732.0896 0.292344 
733.110352 0.512095 
734.103271 2.319619 
735.106323 0.451066 
736.105347 0.659045 
737.105591 0.161888 
738.108032 0.120522 
742.563965 0.126912 
744.0896 1.427844 
745.071167 0.528471 
746.096619 0.363449 
749.116821 0.839291 
750.111023 0.573091 
751.115784 0.649036 
759.097046 0.171031 
760.085693 14.411936 
761.097107 4.856814 
762.09021 6.385545 
763.101746 2.123682 
764.105652 0.765268 
765.123718 0.172918 
766.123535 0.158834 
768.090027 0.129286 
771.096191 0.556241 
772.084717 1.253775 
773.112061 2.602736 
774.10498 1.13088 
775.123474 0.226879 
776.099976 0.147869 
777.112915 23.781277 
778.116516 9.865269 
779.109924 9.319363 
780.108276 3.177382 
781.108887 1.010174 
785.108337 0.350419 
788.074036 8.327589 
789.108948 5.763857 
790.080872 3.130986 
791.10675 2.081097 
792.091858 0.830371 
793.122314 0.286329 
794.122437 0.138789 
795.096558 0.134169 
796.067688 0.136084 
799.096069 0.597703 
801.107727 2.277415 
802.104248 0.504007 
803.098877 0.690625 
804.090454 0.328673 
805.107605 17.946026 
806.110168 7.709752 
807.107117 7.77929 
808.109314 2.308157 
809.104858 1.452255 
810.101746 0.160959 
812.340515 0.141697 
814.108948 0.153625 
815.094238 0.157616 
816.124268 0.201186 
817.105469 2.091035 
818.127441 2.22192 
819.116211 2.656877 
820.123779 1.08808 
821.108093 0.536381 
822.133972 0.175183 
823.093384 0.14696 
824.095276 0.165333 
825.092285 0.140739 
826.097534 0.12855 
827.092224 0.17279 
829.100342 0.323815 
830.110596 0.161472 
831.115051 0.375592 
831.584045 0.131421 
832.11676 0.57634 
833.100403 11.258118 
834.107788 5.214414 
835.10083 4.913086 
836.104065 1.386567 
837.101074 0.164131 
844.114319 0.766265 
845.095276 0.304772 
846.122986 1.252388 
847.117798 0.630002 
849.102844 0.180909 
850.129211 8.35535 
851.124084 2.231053 
852.122009 2.404088 
853.114685 0.708367 
854.113647 0.148178 
855.080078 0.159155 
862.128357 0.579145 
864.131348 0.138663 
874.117188 0.151954 
923.714661 0.131893 
939.930481 0.144685 
941.117126 0.135264 
956.133606 0.311982 
957.168945 0.144836 
958.141357 0.355923 
960.143982 0.160514 
974.181213 0.188338 
976.156189 0.216633 
985.151306 0.216384 
989.17688 0.145378 
992.200867 0.332866 
998.125732 0.140559 
999.153809 0.136818 
1001.160339 0.960967 
1002.163025 0.476443 
1003.149414 0.168367 
1004.168823 0.351401 
1005.191895 0.207464 
1013.162537 0.38362 
1014.158081 0.600175 
1015.14679 0.179083 
1016.183899 0.33156 
1017.176636 0.259873 
1018.171814 0.342319 
1019.182068 0.488448 
1020.182739 0.156392 
1021.208984 0.152174 
1023.194153 0.164785 
1024.177124 0.321229 
1026.167725 0.143043 
1027.163452 0.58076 
1027.648804 0.132686 
1028.176392 0.190638 
1029.15625 1.114629 
1030.160645 0.67381 
1031.165771 0.709639 
1032.178955 0.631003 
1034.189331 0.160296 
1035.192505 0.361756 
1037.184692 0.148842 
1039.129395 0.155949 
1040.152344 0.155788 
1041.150024 0.453688 
1042.171753 1.051337 
1043.180908 0.558787 
1044.178223 1.877347 
1045.171997 0.938179 
1046.172485 1.276714 
1047.174927 0.718991 
1048.167236 0.398149 
1049.194214 0.15881 
1052.166992 0.448306 
1053.186279 0.345087 
1054.164917 0.557332 
1055.152588 0.368309 
1056.157104 1.022533 
1057.148926 4.798879 
1058.159424 2.968495 
1059.145386 1.531736 
1060.174805 3.191424 
1061.190796 1.303644 
1062.187012 2.055875 
1063.194214 1.005829 
1064.180542 0.184905 
1065.196045 0.547941 
1066.17688 0.148005 
1068.161743 0.681793 
1069.166626 1.603754 
1070.172485 2.813205 
1071.174927 1.512241 
1072.1698 2.149036 
1073.169922 1.158172 
1074.172852 6.40962 
1075.171021 3.193619 
1076.168335 2.678419 
1077.179932 0.81819 
1078.170166 0.636549 
1079.178467 0.154262 
1080.181763 0.193158 
1081.17981 0.182554 
1083.137085 0.340797 
1084.140503 0.324148 
1085.184204 1.988265 
1086.171143 3.939566 
1087.185913 4.164639 
1088.183472 3.865239 
1089.188843 2.452092 
1090.177246 1.394515 
1091.17334 0.718545 
1092.160889 0.54658 
1093.152832 0.176445 
1095.164185 0.158168 
1096.154785 1.717321 
1097.167358 0.76889 
1098.164551 1.791989 
1099.159668 0.45881 
1100.155273 1.558587 
1101.163574 1.33862 
1102.15918 2.927323 
1103.187134 2.438711 
1104.192261 1.519237 
1105.196777 3.966389 
1106.205811 1.051969 
1107.200195 1.306222 
1113.178345 4.478912 
1114.175781 7.877535 
1115.183838 7.013693 
1116.177979 4.308919 
1117.180786 2.608189 
1118.167358 1.519326 
1119.170898 1.200811 
1120.153809 1.379678 
1121.154907 0.442442 
1122.138794 0.345912 
1123.187378 0.132757 
1125.195312 0.1417 
1129.17395 0.32701 
1130.176636 2.494809 
1131.196899 11.44794 
1132.197876 6.825477 
1133.192261 5.996865 
1134.19458 2.200136 
1135.187012 1.16086 
1136.19043 0.182379 
1138.163208 0.360716 
1141.172241 2.652013 
1142.170776 0.410824 
1143.172607 0.962537 
1144.181152 0.364688 
1145.165649 0.380021 
1147.183228 3.745104 
1148.204224 4.361405 
1149.209473 2.264695 
1150.205688 1.069815 
1151.206299 0.291777 
1157.158081 0.16349 
1158.171143 6.449551 
1159.189697 19.113077 
1160.188843 10.96509 
1161.189331 9.208058 
1162.186035 4.49825 
1163.168823 4.322238 
1164.172119 1.992994 
1165.161133 1.755011 
1166.162476 0.397494 
1174.201172 0.648677 
1175.185669 8.256361 
1176.213745 21.087004 
1177.213013 13.206568 
1178.213257 11.889654 
1179.214233 6.030632 
1180.206299 3.307859 
1181.209351 0.656002 
1192.205078 3.123331 
1193.209229 1.148733 
1194.203735 0.389082 
1195.209717 0.166802 
1220.231812 0.189817 
1345.354614 0.130158 
1381.29834 0.161099 
1529.295044 0.140411 
1739.548096 0.143477 
1795.547363 0.147124 
END IONS

