BEGIN IONS
PEPMASS=284.186
CHARGE=1+
COMPOUNDNAME=(1S,8R,9R)-8-hydroxy-4-(propan-2-ylidene)-10-oxatricyclo[7.2.1.01,5]dodecane-8-carboxylic acid
LIBRARYQUALITY=3
SMILES=N/A
INCHIKEY=IOYVXXQKVQKQIG-ZJPTYJIISA-N
INCHI=InChI=1S/C15H22O4/c1-9(2)10-3-5-14-7-12(19-8-14)15(18,13(16)17)6-4-11(10)14/h11-12,18H,3-8H2,1-2H3,(H,16,17)/t11?,12-,14-,15-/m1/s1
MSLEVEL=2
SOURCE_INSTRUMENT=N/A-ESI-QFT
FILENAME=library_mgf.mgf
SEQ=*..*
IONMODE=positive
ORGANISM=MONA
NAME=(1S,8R,9R)-8-hydroxy-4-(propan-2-ylidene)-10-oxatricyclo[7.2.1.01,5]dodecane-8-carboxylic acid [M+NH4]+
PI=MoNA
DATACOLLECTOR=MoNA:VF-NPL-QEHF021470
PUBMED=N/A
SUBMITUSER=mwang87
TAGS=
SPECTRUMID=CCMSLIB00004712533
SCANS=21470
51.940315 0.480288 
52.040688 0.147006 
52.084206 0.026725 
52.131023 0.097447 
52.310596 0.026554 
52.581799 0.026673 
52.82621 0.032699 
53.002586 0.128505 
53.038952 0.141496 
53.138134 0.029306 
54.26469 0.088855 
54.917538 0.086345 
54.937832 0.044262 
55.018196 1.340728 
55.054577 6.669554 
55.900311 0.20995 
55.934727 0.126082 
56.04982 0.686282 
56.057858 0.061114 
56.684021 0.028013 
56.965088 0.601544 
57.03384 2.057228 
57.070194 15.055195 
57.071785 0.045338 
57.121906 0.093918 
57.935143 0.072813 
58.065418 2.762024 
58.073555 0.425425 
58.514748 0.162379 
59.049412 2.764503 
59.127174 0.089318 
60.044609 0.160087 
60.055855 0.039313 
60.081036 5.615869 
60.63546 0.02684 
61.010906 6.187262 
61.028755 0.03934 
61.084427 0.035782 
61.131386 0.067508 
61.339375 0.163036 
61.670738 0.140946 
62.018684 1.671136 
62.060307 0.124147 
62.981972 0.403961 
63.006721 0.211067 
63.026493 1.073607 
63.997864 0.068485 
65.03891 0.053157 
65.827591 0.030011 
66.935188 0.157004 
67.054382 9.273703 
67.313896 0.120267 
67.569496 0.184671 
68.013168 0.029089 
68.049652 0.086003 
68.05761 0.178447 
69.033638 2.371579 
69.067932 0.062592 
69.070015 10.772222 
70.02877 0.034405 
70.065239 4.787843 
70.073341 0.359527 
70.334785 0.092589 
70.349937 0.104987 
70.650375 0.081004 
70.957855 0.036178 
71.049248 2.96651 
71.083427 0.062902 
71.085625 12.41236 
71.322746 0.027275 
71.90036 0.102837 
72.044495 0.423742 
72.080833 0.773206 
72.088913 0.348187 
72.553162 0.114522 
72.937256 0.207221 
73.028465 1.271228 
73.046875 4.806306 
73.064857 1.273895 
74.046486 0.178572 
74.060135 1.089341 
75.026459 0.053459 
75.043816 1.455324 
77.080917 0.198445 
77.794632 0.165215 
78.013466 0.57891 
79.021286 6.557824 
79.054306 7.387532 
79.94828 0.174045 
80.049492 0.053094 
80.057549 0.093448 
80.531693 0.164065 
81.01725 0.03811 
81.033585 1.929233 
81.044792 0.086555 
81.069954 15.276515 
82.065094 0.451683 
82.07328 0.57592 
82.345627 0.069685 
83.012787 0.189004 
83.04921 2.933039 
83.06044 0.111034 
83.085587 5.271299 
84.044441 0.254136 
84.052551 0.050797 
84.080849 1.370987 
84.089119 0.033 
84.644089 0.188789 
85.028496 1.324332 
85.064873 3.187627 
85.101242 3.530843 
86.06012 1.828911 
86.096443 1.601929 
86.447403 0.075402 
87.044174 6.641275 
88.039261 0.043184 
88.047478 0.105929 
88.075745 0.380127 
89.059761 100.0 
89.247169 0.103166 
89.963776 0.655244 
90.063133 4.567487 
90.947723 0.309248 
91.054291 5.392268 
91.057426 10.925205 
91.064064 0.132744 
91.344856 0.115948 
92.057121 1.187337 
92.060699 0.403216 
92.39579 0.070533 
93.036835 0.03698 
93.054291 2.694156 
93.070007 8.549178 
94.065193 0.157772 
94.073265 0.324369 
95.049164 2.815809 
95.060524 0.258213 
95.085587 12.588956 
96.044212 0.089286 
96.080864 0.168521 
96.088799 0.429826 
96.09198 0.033576 
96.877159 0.035048 
97.028366 0.493184 
97.03952 0.035327 
97.064903 3.581033 
97.10128 1.928444 
97.326279 0.110488 
98.06015 0.409714 
98.096519 0.392915 
99.044235 1.214672 
99.077217 0.037542 
99.080498 3.648189 
99.313179 0.030538 
100.03949 0.105439 
100.075706 1.682239 
100.0839 0.055682 
100.112122 0.816502 
100.990974 0.297685 
101.05983 1.606831 
102.055168 0.098175 
102.063026 0.046042 
102.091431 0.093591 
103.039047 0.729724 
103.054253 0.729283 
103.0755 0.092699 
104.070923 0.141178 
105.013802 0.137972 
105.033791 0.112885 
105.069992 16.668293 
105.073235 0.285382 
106.065262 0.127542 
106.073273 0.967965 
106.580734 0.138314 
107.049187 2.221744 
107.070358 1.633698 
107.085571 10.685172 
107.974327 0.077065 
108.080795 0.062153 
108.088936 0.404273 
108.958336 0.088241 
109.050941 0.160968 
109.064919 2.569732 
109.101288 7.832146 
110.060097 0.305629 
110.071434 3.82676 
110.09655 0.03729 
110.104469 0.210528 
110.179649 0.029672 
110.522697 0.094881 
110.919456 0.128264 
111.044083 1.548048 
111.055405 0.7151 
111.080475 2.04097 
111.116737 0.107084 
112.075867 0.570684 
112.112167 0.044302 
113.059753 0.407772 
113.096153 0.341055 
114.054848 0.046539 
114.091431 0.071718 
114.127899 0.144351 
115.05439 0.084426 
115.075363 0.10758 
115.086609 1.10545 
116.070557 0.171902 
116.090012 0.101191 
116.107079 0.058621 
116.300934 0.099991 
117.069962 2.112004 
117.091202 0.03924 
117.659904 0.201677 
118.064819 0.114012 
118.073364 0.082317 
119.001244 0.122093 
119.049294 0.189212 
119.085632 6.268328 
119.611778 0.02858 
120.044006 0.032467 
120.080948 1.009733 
120.088966 0.199897 
121.028297 0.303096 
121.039757 0.03072 
121.064934 3.405674 
121.101265 4.987133 
122.059776 0.03659 
122.096542 0.126237 
122.104424 0.038719 
123.044121 0.261362 
123.080437 2.595588 
123.11689 5.449266 
124.039497 0.10169 
124.075729 0.276709 
124.083435 0.061018 
124.112099 0.06996 
124.120377 0.108325 
125.023567 0.033487 
125.059746 0.708072 
125.07103 0.060816 
125.09613 1.565613 
126.091461 0.187979 
126.127861 0.035795 
127.021072 0.026866 
127.038963 0.231214 
127.050407 0.065625 
127.075233 0.107984 
127.111679 0.603089 
128.061905 0.036675 
128.070908 0.094229 
128.106979 0.031962 
128.963852 0.277681 
128.985916 0.029603 
129.054337 0.179203 
129.069977 0.953681 
130.065109 1.3822 
130.073013 0.041582 
130.086304 0.033693 
130.336243 0.095095 
131.00029 0.048708 
131.04924 0.628965 
131.070038 0.029634 
131.085648 3.902187 
131.609665 0.031984 
132.044434 1.113382 
132.080872 0.038723 
132.088989 0.070441 
132.958405 0.068401 
133.064819 0.894271 
133.085907 6.052866 
133.101273 4.830904 
133.959198 0.189945 
134.089371 0.285739 
134.096405 0.319516 
134.104233 0.109708 
134.956253 0.370406 
134.97876 5.368046 
135.043808 0.112194 
135.06691 0.04887 
135.080414 3.497901 
135.116882 2.386599 
136.061951 0.03369 
136.074051 0.145669 
136.112091 0.855584 
136.120102 0.061925 
137.059616 0.635417 
137.096085 1.04672 
137.132629 0.118684 
138.054779 0.041187 
138.067169 0.075234 
138.091385 0.131359 
138.099426 0.030074 
138.12767 0.046703 
139.038971 0.44293 
139.050247 0.770985 
139.075333 0.29519 
139.11174 0.283434 
139.219925 0.156825 
140.04277 0.032479 
140.107208 0.057682 
140.144257 0.076578 
141.054489 0.190277 
141.069946 0.056013 
141.127548 1.428725 
142.077667 0.071791 
142.086288 0.11607 
143.072739 0.211502 
143.085693 1.506293 
144.04451 0.146956 
144.080948 0.241101 
144.093872 0.037098 
144.482071 0.123835 
144.995972 0.138047 
145.064926 0.26763 
145.101227 3.839285 
145.976974 0.032064 
146.060211 0.677145 
146.0923 1.706983 
146.10408 0.083649 
146.149338 0.069703 
146.810669 0.092769 
146.974365 3.305427 
146.99617 0.37054 
147.08046 0.90065 
147.09874 0.100906 
147.116898 2.638746 
147.974503 0.065819 
148.075684 0.064084 
148.105331 0.041432 
148.120499 0.085934 
148.972 0.036512 
149.05986 0.700947 
149.096252 1.195046 
149.132645 0.442087 
149.954346 0.393708 
150.077682 0.082386 
150.091217 0.348475 
150.099899 0.036481 
150.329849 0.113545 
150.951019 0.657132 
150.968933 0.274052 
151.075363 2.098327 
151.10553 0.035627 
151.111862 1.454553 
151.147903 0.033257 
152.056808 0.735753 
152.070938 0.074747 
152.078781 0.080077 
152.093109 0.861988 
152.106354 0.126605 
152.114914 0.054387 
152.951843 0.047341 
152.966888 0.468145 
152.989304 5.02855 
153.024124 0.0923 
153.054367 0.11536 
153.091064 0.516933 
153.099365 2.637223 
153.12735 0.105005 
154.064774 0.044268 
154.086426 0.05021 
154.096924 0.09382 
154.122726 0.436075 
155.060333 0.110821 
155.070129 0.124749 
155.08551 0.586964 
156.080872 0.228483 
156.094116 0.053117 
156.101181 0.053567 
157.076004 0.214914 
157.101227 1.740015 
158.060165 0.400223 
158.097214 0.036204 
158.103882 0.048997 
158.469864 0.191588 
159.044357 0.162113 
159.068558 0.039237 
159.08049 0.550681 
159.116974 2.686286 
160.075485 0.190791 
160.119873 0.033289 
160.333954 0.105352 
160.961853 0.372978 
161.096085 0.963294 
161.132462 0.865688 
162.091766 0.053801 
162.127151 0.031184 
162.987564 0.05238 
163.075256 0.47976 
163.111755 0.601397 
163.147934 0.535097 
163.242935 0.124094 
163.987534 0.111795 
164.070938 0.096368 
164.106949 0.618637 
164.229309 0.087925 
164.984924 0.036327 
165.007294 0.991213 
165.054657 0.042652 
165.070251 0.038635 
165.090866 0.518889 
165.127502 0.349582 
166.061279 0.044568 
166.0784 0.051844 
166.086441 0.046209 
166.122635 0.097329 
167.044708 0.032733 
167.069977 0.107138 
167.08551 0.072177 
167.106705 0.044472 
167.964554 0.095858 
168.080933 0.039906 
168.101913 0.048666 
168.113205 0.197317 
168.138016 0.081434 
168.174377 0.038081 
168.961548 0.267677 
169.076157 0.829353 
169.085556 0.042964 
169.101486 1.079973 
170.052414 0.051751 
170.060104 8.062505 
170.097488 0.217493 
170.700592 0.157608 
170.962128 0.044929 
171.000046 0.199805 
171.055573 0.074635 
171.063675 0.515334 
171.080582 0.124988 
171.091644 0.035731 
171.104156 0.049065 
171.116776 1.700752 
172.075058 0.077232 
172.087494 0.037747 
172.111908 0.041716 
172.120026 0.045536 
172.957352 0.044938 
173.059494 0.039428 
173.070694 0.157747 
173.09613 1.06596 
173.132568 1.190826 
174.055145 0.331179 
174.078781 0.28468 
174.091415 0.147213 
175.06282 0.150739 
175.075592 0.05749 
175.084518 0.038434 
175.111816 0.417603 
175.1483 0.282696 
176.070206 0.137369 
176.107208 0.041646 
177.055008 0.037937 
177.078934 0.460654 
177.088638 1.461671 
177.112122 0.068256 
177.127563 0.136287 
178.003632 0.037513 
178.086151 0.100848 
178.122772 0.051623 
178.159225 0.036927 
178.964493 0.064345 
179.000015 0.06993 
179.071014 0.043109 
179.085007 0.044186 
179.106659 0.132752 
180.101959 0.042393 
180.138458 0.136164 
180.888062 0.188178 
181.076187 0.508263 
181.085999 1.516873 
181.101318 0.174923 
181.123093 0.040379 
182.154358 0.070926 
183.018082 0.116197 
183.056137 0.041278 
183.065674 0.032231 
183.091446 0.136528 
183.117035 1.186125 
184.07579 0.178457 
184.112671 0.039856 
184.133652 0.066547 
185.071106 0.845534 
185.0961 0.26116 
185.132614 0.472263 
186.075989 0.034833 
186.091507 0.109222 
186.12735 0.049616 
187.074966 0.081469 
187.086578 0.234707 
187.111664 0.345329 
187.148193 0.554849 
188.070648 0.185899 
188.107178 0.081078 
189.090775 0.052494 
189.127838 0.308513 
189.163818 0.274563 
190.032379 0.04325 
191.081863 0.05027 
191.106216 0.105103 
191.143539 0.207813 
192.064713 0.491716 
192.138992 0.035842 
192.962051 0.277968 
193.086426 0.041447 
193.158661 0.039515 
195.092072 0.042314 
195.116745 0.141157 
196.076553 0.093015 
196.170044 0.041424 
197.044495 0.035322 
197.071014 0.088152 
197.080963 0.033803 
197.095612 0.03798 
197.132645 0.359665 
198.08049 0.116695 
198.090897 0.224801 
198.127625 0.125484 
199.062714 0.050293 
199.075775 0.042951 
199.086258 0.096638 
199.111832 0.132967 
199.148407 0.17879 
199.900406 0.034383 
200.071213 0.444023 
200.107086 0.046297 
200.568649 0.126075 
201.114899 0.051313 
201.127853 0.480397 
201.16362 0.240083 
201.370499 0.07615 
202.086349 0.180044 
202.121567 0.099827 
203.106232 0.034892 
203.17955 0.268089 
204.137985 0.050728 
204.320709 0.191401 
204.951584 0.20473 
205.049606 0.048554 
205.122147 0.060627 
205.159271 0.123574 
205.980682 0.045731 
206.153625 0.041472 
206.977631 0.771543 
207.116974 0.033001 
207.13913 0.034254 
208.16983 0.042371 
208.883835 0.046777 
209.117523 0.193691 
209.130585 0.054308 
209.891266 0.281291 
209.964676 0.067219 
210.091034 0.087753 
210.102142 0.054571 
210.185272 0.039537 
211.086792 0.531438 
211.097794 0.043946 
211.111862 0.14291 
211.148056 0.123844 
212.070648 0.163225 
212.094376 2.378784 
212.106354 0.5492 
212.118393 0.476118 
213.065918 0.574072 
213.078064 0.744162 
213.090652 0.091722 
213.102264 2.209684 
213.163834 0.059293 
214.086273 2.385073 
214.108643 0.481696 
214.122528 0.151555 
215.070221 0.036017 
215.081863 0.284722 
215.093994 0.797151 
215.143204 0.101867 
215.382355 2.964327 
215.90152 0.045613 
216.0233 0.149269 
216.076538 0.043992 
216.101761 0.423979 
216.138123 0.113436 
217.109756 0.036768 
218.117996 0.509787 
219.10141 0.036815 
219.12355 0.939724 
219.136322 0.036845 
219.174301 0.041 
220.13356 0.193457 
222.127747 0.123798 
222.185165 0.091217 
222.898819 0.045088 
222.96225 0.121286 
223.086304 0.443791 
223.133575 0.050116 
223.145218 0.836443 
223.89418 0.037014 
223.990814 0.113112 
224.10701 0.187677 
224.164902 0.083005 
224.987793 0.489123 
225.010437 0.174611 
225.043121 0.699555 
225.054398 0.106977 
225.065704 0.056541 
225.078018 0.039933 
225.090866 0.121076 
225.102615 0.171638 
225.126907 0.096524 
225.163727 0.098625 
226.04245 0.041265 
226.086166 0.289958 
226.098007 0.057536 
226.110031 0.501495 
226.122437 0.194836 
227.039673 0.827561 
227.070267 0.058797 
227.094009 0.923875 
227.117645 0.534807 
227.143082 0.10447 
228.101852 0.936622 
228.113449 0.048376 
228.138397 0.076118 
229.000351 0.035343 
229.019409 0.0352 
229.085968 0.220896 
229.109436 0.228829 
229.122192 0.089212 
230.001938 0.037955 
230.024063 0.18868 
230.080307 0.078511 
230.11734 0.133255 
230.997284 0.035231 
231.173691 0.044973 
231.896255 0.082886 
232.398895 0.127689 
233.792603 0.141493 
233.891541 0.973099 
236.164856 0.221685 
236.626892 0.122455 
237.159805 0.151543 
238.122513 0.143853 
238.180359 0.252294 
239.117828 0.437137 
239.130234 0.121746 
239.179214 0.049147 
240.101761 0.942307 
240.124634 0.03898 
240.140076 0.452523 
240.172516 0.038113 
240.232178 6.54728 
240.909912 0.086676 
241.085876 0.093618 
241.158569 0.397765 
241.236359 0.150092 
242.117645 1.947006 
243.125153 0.051284 
243.763229 0.18767 
244.133377 0.041435 
248.127975 0.049117 
250.893204 0.110784 
251.08168 0.04254 
252.269089 0.169994 
252.983444 0.199967 
253.801544 0.121222 
253.955658 0.313284 
253.970963 0.035103 
254.117371 0.224572 
254.140503 0.040637 
254.153488 0.039652 
254.186264 0.195058 
254.962799 3.071783 
255.065475 0.210353 
255.094437 0.153332 
255.124573 0.081892 
255.161102 0.057652 
255.962967 0.12901 
256.133026 0.406806 
257.140656 0.851893 
264.122803 0.623115 
264.195007 0.100639 
265.128693 4.074942 
265.162445 0.03967 
265.199005 0.066083 
266.13501 0.294379 
266.154022 0.047719 
266.17514 0.038036 
266.999084 3.408245 
267.016968 1.294268 
267.185699 0.109811 
267.999084 0.713611 
268.135834 0.320139 
268.169647 1.21152 
268.263733 0.34625 
268.978333 38.204006 
268.996338 17.784267 
269.978302 7.506473 
269.996429 2.633299 
270.051819 0.438376 
270.958557 9.44404 
270.976135 2.492746 
270.993835 14.089052 
271.010986 0.264978 
271.156982 0.043694 
271.957672 1.057638 
271.978455 0.095753 
271.994049 2.728083 
272.955231 0.158 
272.974091 0.125814 
272.991211 1.357387 
275.037415 0.191393 
275.901855 0.196316 
278.818268 0.264314 
279.828217 0.040048 
282.152374 0.100759 
282.169922 0.928569 
282.221619 0.050978 
282.25647 0.10751 
282.279236 0.712109 
282.315979 0.044978 
282.994202 12.19116 
283.030701 3.040615 
283.048279 0.968666 
283.144653 0.036593 
283.180542 1.658564 
283.203583 0.161644 
283.240509 0.195494 
283.243195 0.206083 
283.263092 5.638041 
283.280609 0.147293 
283.994141 2.719312 
284.03125 1.200757 
284.091156 0.044431 
284.103943 0.048018 
284.127625 0.306713 
284.148285 0.040724 
284.164917 5.981507 
284.184113 1.022973 
284.2005 1.580007 
284.237854 0.326118 
284.266388 0.298429 
284.294861 0.888658 
284.331177 29.145985 
284.973236 0.357837 
284.991364 1.744966 
285.009583 27.146696 
285.028015 34.042904 
285.0755 2.873067 
285.109833 13.391194 
285.126984 0.330527 
285.167999 0.663198 
285.197266 0.05527 
285.218842 0.067427 
285.334534 4.960921 
286.009735 5.044477 
286.028564 5.969062 
286.079895 0.053918 
286.112091 1.566412 
286.143402 0.742202 
286.179962 10.138931 
286.216217 2.153366 
286.252533 0.051115 
286.310272 0.046378 
286.988739 0.252654 
287.00705 0.359565 
287.025818 0.901949 
288.968353 2.62547 
289.004608 3.20529 
289.968201 0.335324 
290.005127 0.367621 
290.947754 0.107652 
291.001892 0.297832 
301.058807 22.949379 
302.059662 3.83266 
303.020355 1.92165 
303.056427 0.505947 
304.020966 0.242891 
309.817169 0.062118 
END IONS

