BEGIN IONS
TITLE=Scan Number: 899
PEPMASS=814.51398
CHARGE=1+
COMPOUNDNAME=Tolytoxin
LIBRARYQUALITY=3
SMILES=C[C@H]1[C@@H](C[C@@H]([C@]2(CO2)[C@H](C[C@@H]3CC=C[C@H](O3)C[C@H]([C@H](/C=C(/C=C/C(=O)O[C@@H]1[C@@H](C)[C@H]([C@@H](C)CCC(=O)[C@H](C)[C@@H]([C@H](C)/C=C/N(C)C=O)OC)O)\C)O)OC)OC)OC)OC
INCHIKEY=FTGOWEQDZZMPNJ-GUMZKTDUSA-N
INCHI=
MSLEVEL=2
SOURCE_INSTRUMENT=LC-ESI-qTof
FILENAME=f.philipwi/0_WilliamsFreshwaterCyanosStandardsConvertedTo_mzXML_v2/PW-19_P1-C-1_Tolytoxin_849_01_15538_Scan884-971.mzXML;
SEQ=*..*
NOTES=
IONMODE=Positive
ORGANISM=GNPS-LIBRARY
NAME=Tolytoxin M+H
SPECTRUMID=CCMSLIB00000424878
ACTIVATION=CID
INSTRUMENT=ion trap
SCANS=899
137.708664 44.0 
147.016434 36.0 
147.122299 128.0 
147.410858 32.0 
149.115265 100.0 
151.109848 92.0 
154.125793 44.0 
157.107605 112.0 
159.080627 112.0 
161.13591 120.0 
162.89653 40.0 
163.097366 100.0 
163.160492 120.0 
168.103531 116.0 
170.076248 92.0 
170.58371 112.0 
173.134293 140.0 
173.921677 40.0 
175.843597 72.0 
176.224182 36.0 
176.79158 52.0 
177.139236 120.0 
178.071335 116.0 
178.823013 24.0 
180.411987 52.0 
181.106155 88.0 
183.119034 84.0 
185.099655 144.0 
189.131454 272.0 
190.137421 104.0 
191.121262 76.0 
192.116348 64.0 
193.101425 48.0 
195.135941 104.0 
197.130951 92.0 
201.102264 92.0 
202.097839 92.0 
203.092667 148.0 
206.123016 108.0 
207.104996 252.0 
208.07373 116.0 
208.159683 108.0 
209.098801 44.0 
209.209427 68.0 
211.15596 104.0 
213.138748 144.0 
214.161819 148.0 
215.108963 132.0 
217.119736 92.0 
219.137558 132.0 
220.107407 168.0 
220.170959 176.0 
221.150986 300.0 
221.243713 88.0 
222.164368 184.0 
223.85878 24.0 
225.111923 284.0 
226.096054 64.0 
226.402878 48.0 
227.138077 256.0 
228.103729 88.0 
228.990295 32.0 
229.105576 160.0 
229.120773 152.0 
230.081589 56.0 
230.178284 92.0 
230.313705 36.0 
231.138153 108.0 
232.166397 60.0 
233.136642 104.0 
235.136902 44.0 
235.704178 36.0 
236.14476 56.0 
236.772095 44.0 
237.184235 108.0 
238.166946 52.0 
239.175278 148.0 
239.309448 32.0 
240.168121 196.0 
241.176804 120.0 
241.454056 32.0 
242.207428 112.0 
243.026566 72.0 
243.150787 64.0 
243.884399 32.0 
244.554321 32.0 
245.116287 680.0 
246.123566 224.0 
247.12738 72.0 
247.714493 32.0 
248.164276 276.0 
249.133896 72.0 
250.163452 104.0 
251.026215 48.0 
251.172287 148.0 
251.84494 44.0 
252.128265 76.0 
253.119522 76.0 
254.136337 56.0 
255.159592 64.0 
256.111572 52.0 
257.1185 144.0 
258.148987 172.0 
259.109253 88.0 
259.190369 84.0 
260.167206 76.0 
261.154968 112.0 
261.252014 100.0 
262.14505 324.0 
263.134796 196.0 
264.151093 84.0 
265.156982 88.0 
266.175171 120.0 
267.122406 128.0 
267.216187 44.0 
268.186127 228.0 
269.177612 224.0 
270.642212 172.0 
271.199493 140.0 
272.209686 60.0 
273.114899 176.0 
273.188629 100.0 
274.237732 92.0 
275.141266 108.0 
276.952301 32.0 
277.174408 164.0 
279.197876 160.0 
280.171234 300.0 
281.156982 212.0 
283.149994 108.0 
284.137665 92.0 
285.149994 92.0 
286.13974 180.0 
286.236786 104.0 
287.121826 36.0 
287.197449 112.0 
288.235443 84.0 
289.139679 148.0 
289.231934 64.0 
290.154144 76.0 
291.165771 92.0 
292.23175 96.0 
293.154694 108.0 
293.227386 96.0 
294.119965 80.0 
295.192078 296.0 
295.588898 40.0 
296.134918 80.0 
297.191376 108.0 
299.357697 24.0 
299.490082 40.0 
301.147095 104.0 
301.224518 112.0 
302.242432 92.0 
302.66449 96.0 
303.157562 108.0 
303.618958 52.0 
303.941132 44.0 
304.163452 108.0 
305.184906 92.0 
306.206879 48.0 
307.162292 140.0 
309.175568 100.0 
310.454651 40.0 
311.153778 80.0 
312.164185 136.0 
313.133514 72.0 
313.218262 80.0 
314.918304 128.0 
315.031433 52.0 
315.191711 120.0 
316.216156 124.0 
316.674103 32.0 
317.182343 240.0 
317.548157 32.0 
318.166962 88.0 
319.140442 92.0 
319.231567 52.0 
319.73288 32.0 
320.185486 2032.0 
320.417145 40.0 
320.930817 24.0 
321.010742 32.0 
321.184357 564.0 
321.444885 28.0 
322.176758 80.0 
323.177063 64.0 
323.665894 60.0 
325.252991 108.0 
326.172241 92.0 
326.389526 52.0 
327.242706 68.0 
327.830658 28.0 
328.228485 96.0 
329.205566 148.0 
330.224121 140.0 
331.212646 88.0 
332.224884 200.0 
333.219513 128.0 
334.127747 36.0 
336.392059 32.0 
337.147308 180.0 
337.250214 80.0 
338.141907 124.0 
339.206696 132.0 
340.2164 44.0 
340.967163 72.0 
341.202606 68.0 
342.215973 68.0 
342.404694 104.0 
343.207245 68.0 
343.7034 88.0 
344.240021 92.0 
345.230835 112.0 
346.16098 96.0 
346.241882 140.0 
347.177032 84.0 
348.236389 76.0 
349.214935 100.0 
350.174286 72.0 
351.218811 64.0 
352.21106 96.0 
352.552094 24.0 
352.731628 88.0 
353.206696 60.0 
353.64209 40.0 
354.169739 48.0 
354.253723 80.0 
355.190155 156.0 
356.139893 112.0 
356.272217 56.0 
356.934296 96.0 
357.271576 88.0 
358.255066 84.0 
359.173615 136.0 
359.346985 32.0 
360.256042 584.0 
361.214813 64.0 
363.222473 260.0 
364.243835 92.0 
365.238678 68.0 
365.487366 28.0 
365.73114 44.0 
367.928741 48.0 
368.258942 68.0 
369.205017 192.0 
370.15744 144.0 
371.194489 104.0 
371.360321 40.0 
372.256989 60.0 
373.250824 244.0 
374.265015 44.0 
375.561005 28.0 
377.22168 144.0 
379.210999 80.0 
381.227722 52.0 
383.009613 68.0 
383.184296 36.0 
385.00824 36.0 
385.270966 52.0 
386.268036 132.0 
387.188477 484.0 
388.173676 228.0 
388.279694 72.0 
388.518402 40.0 
389.209778 132.0 
390.015045 80.0 
390.263916 1192.0 
390.556549 32.0 
390.959778 32.0 
391.263763 616.0 
391.489319 36.0 
392.274841 96.0 
393.25708 80.0 
394.20575 52.0 
395.188354 88.0 
395.23056 52.0 
395.274445 84.0 
396.271423 56.0 
398.253448 48.0 
398.609711 40.0 
399.284515 52.0 
400.226013 92.0 
400.495514 32.0 
401.192291 164.0 
401.83609 40.0 
406.205292 32.0 
406.308075 56.0 
407.323792 80.0 
408.057434 24.0 
408.259308 136.0 
409.24295 88.0 
411.189423 100.0 
412.29361 192.0 
412.732147 108.0 
413.237366 80.0 
414.313599 84.0 
416.272217 228.0 
416.548309 100.0 
416.834595 48.0 
417.230896 72.0 
418.251282 180.0 
418.358673 88.0 
420.248962 84.0 
421.30072 96.0 
422.219788 52.0 
423.209869 104.0 
423.852692 36.0 
426.233398 52.0 
427.271698 104.0 
427.614349 48.0 
428.260498 36.0 
429.250458 88.0 
432.041626 56.0 
434.292328 112.0 
435.187561 64.0 
436.287048 68.0 
436.411804 36.0 
437.265656 92.0 
437.851196 24.0 
438.278137 72.0 
439.231903 84.0 
439.787445 48.0 
440.081573 48.0 
440.194794 64.0 
440.31076 88.0 
441.249634 148.0 
442.306152 56.0 
443.256592 80.0 
444.349457 104.0 
444.747528 120.0 
445.269562 260.0 
446.308319 44.0 
446.91452 44.0 
447.2388 536.0 
448.020233 28.0 
448.250793 400.0 
449.127319 68.0 
449.289429 36.0 
451.237213 104.0 
452.288361 96.0 
453.080688 140.0 
455.281464 80.0 
456.295715 76.0 
460.273224 72.0 
461.276367 68.0 
463.275208 168.0 
464.290161 140.0 
465.264709 180.0 
466.296509 52.0 
467.260559 52.0 
468.304016 76.0 
470.850037 84.0 
471.320465 64.0 
473.273773 76.0 
474.342194 52.0 
475.300629 88.0 
478.310669 108.0 
479.293396 108.0 
484.306671 64.0 
485.282623 64.0 
486.31778 76.0 
487.290741 144.0 
488.29892 84.0 
489.316071 104.0 
490.329437 76.0 
491.303864 56.0 
495.324799 92.0 
497.284576 52.0 
498.287231 72.0 
498.422424 40.0 
499.319397 40.0 
501.22995 68.0 
502.315155 108.0 
503.291046 88.0 
504.317291 40.0 
505.351166 108.0 
506.366455 48.0 
507.27774 96.0 
507.830658 40.0 
508.491669 44.0 
509.714203 32.0 
511.010284 32.0 
513.295715 76.0 
515.287048 300.0 
516.283447 44.0 
517.321533 156.0 
517.457336 128.0 
517.819946 40.0 
518.168091 64.0 
518.323364 240.0 
519.591125 36.0 
519.750977 44.0 
520.0271 68.0 
522.996826 128.0 
523.317566 44.0 
523.594666 92.0 
524.265869 44.0 
526.329102 108.0 
527.364685 80.0 
528.31665 80.0 
528.668335 104.0 
528.873596 40.0 
528.990845 36.0 
529.284119 40.0 
530.332764 68.0 
531.2995 68.0 
533.339478 64.0 
534.326294 64.0 
535.353821 80.0 
536.346924 96.0 
537.351257 68.0 
538.282593 76.0 
538.918701 72.0 
539.214722 52.0 
540.331665 48.0 
541.333557 176.0 
542.342529 76.0 
542.787964 104.0 
543.307922 76.0 
543.530823 132.0 
545.300781 96.0 
546.370422 92.0 
547.312134 48.0 
547.610474 36.0 
548.102844 32.0 
548.237183 84.0 
548.359192 172.0 
548.759705 36.0 
549.327271 48.0 
549.476685 44.0 
550.014771 32.0 
551.350586 80.0 
552.334412 108.0 
552.993774 184.0 
553.173706 36.0 
553.353577 48.0 
556.326599 100.0 
557.379578 140.0 
557.876343 36.0 
558.338562 168.0 
559.351318 260.0 
560.352844 628.0 
561.349365 76.0 
561.571228 36.0 
562.308655 100.0 
562.568665 36.0 
563.317749 304.0 
564.317688 80.0 
564.944946 52.0 
565.335327 264.0 
566.350769 120.0 
567.311035 72.0 
567.842529 24.0 
568.024841 24.0 
568.346802 192.0 
569.347351 24.0 
572.362976 56.0 
573.400513 96.0 
574.380737 244.0 
575.351624 112.0 
576.396179 40.0 
577.131042 36.0 
577.345459 124.0 
579.353699 80.0 
582.39563 80.0 
585.121765 52.0 
585.31604 80.0 
585.66156 36.0 
586.448547 80.0 
586.896301 36.0 
587.461426 72.0 
588.361389 180.0 
589.153137 36.0 
589.350464 556.0 
589.694824 52.0 
589.896057 40.0 
590.219543 36.0 
590.364807 3376.0 
590.546509 32.0 
590.747925 36.0 
590.871887 24.0 
591.135315 28.0 
591.376282 1492.0 
591.565491 32.0 
591.929565 52.0 
592.382996 5808.0 
592.869324 40.0 
593.233765 168.0 
593.386536 2092.0 
593.664307 32.0 
593.850708 64.0 
594.006042 44.0 
594.388916 344.0 
594.705383 40.0 
595.398438 48.0 
596.142212 40.0 
596.369873 112.0 
596.855652 40.0 
597.348633 60.0 
597.818481 32.0 
598.270569 24.0 
598.3797 56.0 
598.738403 32.0 
600.377319 72.0 
601.111633 36.0 
601.783875 32.0 
605.307495 56.0 
607.740845 36.0 
608.322388 40.0 
610.242065 44.0 
613.695557 56.0 
614.42218 80.0 
615.351624 120.0 
616.346863 160.0 
617.358093 68.0 
618.372803 100.0 
621.378357 104.0 
624.395508 80.0 
625.373169 48.0 
626.847351 44.0 
627.3927 116.0 
628.773254 24.0 
629.384644 164.0 
629.844666 100.0 
632.438965 32.0 
635.417053 80.0 
636.388733 64.0 
638.319885 112.0 
640.39917 80.0 
642.387329 52.0 
646.381714 64.0 
647.386963 40.0 
650.374695 32.0 
651.334229 44.0 
652.388977 104.0 
653.362366 48.0 
656.395447 64.0 
658.397583 40.0 
659.477539 52.0 
660.443726 64.0 
664.407227 148.0 
665.367493 48.0 
666.403809 32.0 
667.358582 92.0 
669.38562 40.0 
670.367859 120.0 
671.432251 64.0 
672.423706 52.0 
674.41449 184.0 
675.385803 84.0 
678.387634 52.0 
680.265076 160.0 
680.398071 72.0 
682.411499 36.0 
683.444336 44.0 
684.427917 60.0 
685.111877 36.0 
685.395508 56.0 
686.426514 136.0 
687.98468 60.0 
688.510864 136.0 
689.373169 44.0 
691.383057 68.0 
695.411621 120.0 
696.420593 52.0 
696.706604 120.0 
700.405273 68.0 
701.408936 60.0 
702.463501 56.0 
703.425354 56.0 
705.432678 44.0 
706.431946 72.0 
706.550537 144.0 
708.63623 56.0 
713.429626 76.0 
714.979858 28.0 
715.406067 84.0 
715.730042 136.0 
716.634216 44.0 
718.422302 132.0 
719.476501 104.0 
721.214844 40.0 
721.505859 96.0 
723.442017 36.0 
724.447571 64.0 
727.356506 72.0 
728.784119 60.0 
730.437073 28.0 
731.419434 104.0 
732.433838 172.0 
733.472412 36.0 
734.47406 40.0 
735.441833 56.0 
736.465149 84.0 
737.050415 36.0 
737.413879 60.0 
737.535095 100.0 
738.418213 52.0 
739.418518 96.0 
741.227112 28.0 
744.441223 44.0 
746.808533 32.0 
747.466003 60.0 
747.906372 32.0 
748.430969 252.0 
748.56897 112.0 
749.431824 196.0 
749.790344 128.0 
750.461121 152.0 
751.449463 68.0 
752.507874 132.0 
753.530334 32.0 
754.486938 104.0 
755.158569 120.0 
755.486145 128.0 
756.490479 80.0 
757.630554 40.0 
762.304993 32.0 
763.48468 80.0 
764.480042 164.0 
766.453491 92.0 
767.484314 108.0 
769.414307 128.0 
770.493286 68.0 
771.519897 64.0 
774.621582 108.0 
774.745789 36.0 
775.437927 44.0 
778.565247 76.0 
779.401428 48.0 
779.543823 36.0 
779.668396 120.0 
780.461548 152.0 
781.463867 92.0 
781.734497 32.0 
782.287109 140.0 
782.488525 80.0 
783.470581 164.0 
784.478699 124.0 
785.434753 88.0 
786.525757 144.0 
786.875916 52.0 
787.466125 48.0 
789.685852 48.0 
790.312927 180.0 
790.778931 36.0 
793.488037 76.0 
794.507935 72.0 
795.508972 84.0 
796.49646 168.0 
797.507935 248.0 
798.505798 60.0 
799.470032 100.0 
800.109741 40.0 
800.488464 68.0 
801.498779 48.0 
802.816711 124.0 
804.551575 88.0 
805.293091 56.0 
805.455872 132.0 
805.920654 64.0 
806.984497 44.0 
807.962769 52.0 
808.022644 68.0 
808.159851 24.0 
808.198181 44.0 
808.412842 40.0 
808.604004 52.0 
808.860657 40.0 
809.108398 72.0 
809.454773 72.0 
809.712952 40.0 
809.923523 64.0 
810.17218 88.0 
810.476379 964.0 
810.85614 76.0 
811.04718 100.0 
811.199219 104.0 
811.483765 1060.0 
811.656006 232.0 
811.847107 132.0 
812.167969 76.0 
812.241638 108.0 
812.281128 100.0 
812.493713 12108.0 
812.804077 48.0 
812.996033 84.0 
813.265442 88.0 
813.496826 6928.0 
813.782654 124.0 
813.958069 168.0 
814.174194 132.0 
814.510864 26424.0 
814.77301 168.0 
815.048767 120.0 
815.280273 76.0 
815.511108 11536.0 
815.924683 60.0 
816.119629 24.0 
816.513611 4268.0 
816.911987 92.0 
817.201538 100.0 
817.475708 2256.0 
817.781921 48.0 
817.916931 68.0 
818.089844 32.0 
818.257935 52.0 
818.48645 980.0 
819.008545 32.0 
819.444458 160.0 
819.785217 100.0 
820.030457 52.0 
820.213013 172.0 
820.454956 48.0 
820.724304 40.0 
820.870361 64.0 
821.381836 48.0 
821.655884 36.0 
821.863037 48.0 
822.204163 52.0 
822.350403 44.0 
822.510376 80.0 
823.228088 52.0 
823.37439 64.0 
824.252625 48.0 
824.49054 52.0 
824.72998 52.0 
824.893311 36.0 
825.058105 40.0 
825.845581 40.0 
826.486877 52.0 
826.98175 44.0 
828.632446 32.0 
829.348206 60.0 
830.119446 52.0 
830.303101 44.0 
831.001221 40.0 
831.796631 84.0 
832.159302 56.0 
832.729492 32.0 
833.907166 52.0 
834.293823 32.0 
834.993591 36.0 
835.362061 24.0 
835.619995 60.0 
836.82196 40.0 
836.97583 44.0 
840.584229 44.0 
841.3125 60.0 
843.821594 144.0 
845.136841 52.0 
848.067383 44.0 
850.928589 132.0 
857.598633 52.0 
862.253174 112.0 
868.073425 68.0 
868.817078 28.0 
878.879578 116.0 
900.784851 48.0 
905.90033 88.0 
908.742126 108.0 
917.796204 96.0 
928.059998 140.0 
957.023376 108.0 
982.351746 40.0 
984.330688 124.0 
990.078918 60.0 
1032.926147 84.0 
1034.369873 80.0 
1053.627686 64.0 
1064.997192 36.0 
1076.448608 116.0 
1085.838623 84.0 
1097.0 92.0 
1101.226685 116.0 
1114.998291 64.0 
1159.972412 104.0 
1176.771729 144.0 
1178.740723 68.0 
1245.019287 72.0 
1256.968872 132.0 
1266.365479 112.0 
1268.748413 112.0 
1323.711548 36.0 
1406.559692 108.0 
1457.967163 68.0 
1531.053589 84.0 
1541.797729 172.0 
1850.118164 52.0 
END IONS

