BEGIN IONS
PEPMASS=120.077
CHARGE=1+
COMPOUNDNAME=CYCLOSERINE
LIBRARYQUALITY=3
SMILES=N/A
INCHIKEY=DYDCUQKUCUHJBH-UWTATZPHSA-N
INCHI=InChI=1S/C3H6N2O2/c4-2-1-7-5-3(2)6/h2H,1,4H2,(H,5,6)/t2-/m1/s1
MSLEVEL=2
SOURCE_INSTRUMENT=N/A-ESI-QFT
FILENAME=library_mgf.mgf
SEQ=*..*
IONMODE=positive
ORGANISM=MONA
NAME=CYCLOSERINE [M+NH4]+
PI=MoNA
DATACOLLECTOR=MoNA:VF-NPL-QEHF027824
PUBMED=N/A
SUBMITUSER=mwang87
TAGS=
SPECTRUMID=CCMSLIB00004721405
SCANS=27824
50.020763 0.089551 
50.10218 0.016635 
50.368206 0.075835 
50.834557 0.098383 
51.197376 0.069708 
51.26247 0.09007 
54.388351 0.109867 
55.551079 0.020677 
56.049759 0.258421 
56.594624 0.017676 
57.154171 0.102939 
57.248852 0.023231 
57.935135 0.043394 
58.028992 82.156952 
58.065361 0.713892 
58.680927 0.100067 
58.825214 0.098235 
58.852348 0.129952 
58.920586 0.092883 
59.032314 0.079254 
59.073158 0.285572 
59.112698 0.116774 
59.779537 0.108093 
60.044621 5.754731 
60.100773 0.118008 
60.135689 0.114579 
61.010826 0.11808 
61.030209 0.111054 
61.982975 0.100531 
62.193127 0.091423 
62.406734 0.018808 
63.302341 0.124524 
63.409935 0.096943 
65.502907 0.068276 
65.979378 0.019998 
66.536827 0.0889 
67.100136 0.128549 
67.793373 0.075243 
69.064056 0.110726 
69.646057 0.021375 
70.028778 0.527704 
70.348778 0.077071 
70.557144 0.113676 
71.105705 0.118627 
71.619499 0.125411 
71.760521 0.127587 
71.920357 0.097661 
72.080772 0.680536 
72.341118 0.084112 
73.028481 0.068847 
73.196121 0.108877 
74.023643 23.334026 
74.059998 0.587568 
75.026817 0.026591 
75.055305 100.0 
75.328629 0.112218 
75.375076 0.123431 
76.039284 0.030309 
76.058632 0.112898 
76.103737 0.106846 
77.657135 0.083751 
78.087662 0.122696 
78.53643 0.090302 
78.923096 0.119709 
79.054062 0.024803 
80.457672 0.125573 
81.368637 0.100158 
81.776886 0.101438 
82.338715 0.10705 
83.041252 0.111649 
83.19677 0.114944 
84.132507 0.129697 
85.632584 0.111923 
86.096329 0.5022 
86.101524 0.092922 
86.477943 0.097704 
87.88755 0.104134 
88.039314 34.7649 
88.042435 0.082575 
89.042831 0.237407 
89.047134 0.933139 
90.141953 0.106192 
90.510216 0.109723 
91.054199 0.939858 
92.577919 0.116639 
93.044724 1.92393 
93.069931 0.078051 
93.653854 0.103542 
93.842468 0.081372 
93.9459 0.106199 
94.265923 0.106513 
95.589371 0.120667 
95.711334 0.122572 
95.733978 0.099527 
96.011086 5.730869 
96.028809 0.11034 
96.234535 0.08656 
97.010635 0.023347 
99.010872 0.024419 
100.000946 0.165496 
100.021179 0.025083 
100.112206 0.29491 
100.50473 5.212576 
101.578735 0.105211 
102.03698 0.063966 
102.054977 0.08957 
102.091141 0.058502 
103.050209 1.316314 
103.054108 0.101605 
104.034164 2.11782 
107.019264 0.105612 
107.621902 0.110676 
108.016373 1.040505 
109.510117 0.035505 
110.366989 0.119131 
112.683975 0.099728 
112.735779 0.127496 
112.986694 0.14239 
113.015297 0.118713 
113.910118 0.122778 
116.184952 0.025008 
116.197502 0.09539 
116.638283 0.112591 
116.873558 0.131188 
117.915543 0.101604 
118.081573 0.118234 
118.086235 3.413981 
118.122688 1.059358 
119.005981 0.023246 
119.085381 0.026902 
119.089714 0.062416 
120.047523 21.714104 
120.065613 0.031805 
120.080711 0.963209 
120.101883 0.07822 
121.003983 0.130038 
121.039536 4.589702 
121.047096 0.139044 
121.051338 0.238765 
121.06073 9.111675 
121.065422 0.070083 
123.01783 0.114994 
124.065422 0.099647 
124.989311 0.02428 
126.391731 0.097452 
127.488525 0.1082 
130.214142 0.100879 
134.80687 0.104554 
135.509094 0.101299 
136.763443 0.110764 
138.291199 0.129142 
138.326584 0.124939 
END IONS

