BEGIN IONS
PEPMASS=273.076
CHARGE=1+
COMPOUNDNAME=naringenin
LIBRARYQUALITY=3
SMILES=N/A
INCHIKEY=FTVWIRXFELQLPI-ZDUSSCGKSA-N
INCHI=InChI=1S/C15H12O5/c16-9-3-1-8(2-4-9)13-7-12(19)15-11(18)5-10(17)6-14(15)20-13/h1-6,13,16-18H,7H2/t13-/m0/s1
MSLEVEL=2
SOURCE_INSTRUMENT=N/A-ESI-QFT
FILENAME=library_mgf.mgf
SEQ=*..*
IONMODE=positive
ORGANISM=MONA
NAME=naringenin [M+H]+
PI=MoNA
DATACOLLECTOR=MoNA:VF-NPL-QEHF000568
PUBMED=N/A
SUBMITUSER=mwang87
TAGS=
SPECTRUMID=CCMSLIB00004691631
SCANS=568
50.236938 0.014768 
50.628605 0.015561 
50.649464 0.016671 
50.737309 0.012295 
50.916191 0.03217 
50.917423 0.087301 
53.575497 0.014794 
54.108246 0.01597 
55.289421 0.014727 
56.074986 0.012649 
56.545242 0.015577 
57.067993 0.016831 
57.350937 0.014279 
59.800701 0.012263 
60.558407 0.015258 
60.74987 0.016291 
61.011417 18.839458 
61.091225 0.012965 
61.100967 0.012292 
61.167702 0.014623 
61.520767 0.014663 
62.000065 0.017739 
62.010803 0.152435 
62.014786 0.704985 
62.746487 0.010237 
63.007214 1.350502 
63.008839 0.015592 
64.244598 0.014875 
64.854126 0.015655 
67.158852 0.01399 
67.733185 0.017277 
67.740105 0.016357 
68.054169 0.017514 
69.218414 0.013527 
69.463806 0.011337 
69.524193 0.01358 
69.755112 0.012598 
70.48436 0.015564 
70.52816 0.015102 
70.820351 0.01794 
71.801888 0.015671 
71.930191 0.011744 
72.170219 0.01301 
72.793503 0.02137 
72.7957 0.015508 
72.929016 0.013187 
72.977776 0.011641 
73.331238 0.013425 
73.604385 0.013765 
73.833199 0.011509 
74.152939 0.01706 
74.721649 0.019916 
75.031273 0.015753 
75.300652 0.016218 
77.031921 0.013384 
78.15712 0.010413 
78.968018 0.012021 
79.862091 0.014611 
82.075241 0.015835 
82.721664 0.016974 
82.903465 0.015876 
83.223701 0.020069 
83.540016 0.016438 
83.657913 0.012378 
84.074097 0.014305 
84.220261 0.013507 
84.28791 0.012981 
86.787285 0.013822 
87.516487 0.012313 
87.536819 0.018316 
87.907211 0.013512 
88.413467 0.013601 
89.776985 0.013561 
93.048134 0.017496 
93.153755 0.016317 
94.31842 0.018311 
95.698952 0.012617 
95.753983 0.013538 
95.959381 0.017099 
96.090347 0.011898 
96.70108 0.012021 
98.891914 0.013938 
98.975822 0.341814 
100.755882 0.017084 
101.003632 2.788311 
101.007446 0.016174 
104.930763 0.034489 
105.88224 0.012463 
106.174767 0.014218 
109.664879 0.013416 
109.669289 0.013418 
111.492226 0.012531 
111.733582 0.01126 
111.762222 0.014358 
111.823677 0.011672 
111.911407 0.013917 
112.31163 0.017085 
112.325249 0.014636 
113.931641 0.015054 
114.948563 0.554837 
115.027382 0.014397 
116.948944 0.558766 
116.986229 0.021851 
117.175278 0.011257 
117.996254 0.011611 
118.881401 0.015426 
118.943855 0.021653 
119.006462 0.01548 
119.199837 0.013015 
120.925552 0.02104 
121.082741 0.01256 
122.093086 0.012493 
122.941116 0.630576 
124.421791 0.014522 
125.910187 0.016988 
126.776527 0.016251 
128.524292 0.012315 
129.898819 0.013483 
130.797455 0.011239 
132.958694 0.125204 
133.948685 0.144979 
134.919998 0.153854 
134.95932 0.240032 
135.020721 0.01436 
135.943939 0.02635 
135.949142 0.918518 
136.714249 0.011977 
136.956482 0.459713 
137.944626 0.193301 
138.239288 0.015732 
138.952072 0.029461 
143.403305 0.014228 
148.971939 2.815706 
149.788239 0.012621 
149.943253 0.127605 
149.972015 0.097063 
149.975372 0.093502 
150.951248 1.945838 
150.972794 1.54024 
151.858734 0.015641 
151.970078 0.077512 
152.951569 1.148519 
152.967773 0.24802 
153.018066 0.051391 
153.367874 0.011985 
153.959564 0.259258 
154.94664 0.086165 
162.95105 0.290874 
163.734177 0.016415 
163.9431 0.04538 
163.958618 0.022578 
164.491714 0.014073 
164.951645 4.588648 
165.196396 0.016615 
165.920563 0.021886 
165.938293 1.895695 
166.947159 1.100011 
166.982452 0.234137 
167.953918 0.582313 
168.961823 0.432296 
168.982864 2.383949 
170.962067 0.110529 
170.978287 0.404423 
174.960464 0.015892 
175.196701 0.019652 
176.989487 0.043366 
177.380615 0.029065 
177.525864 0.016514 
177.938278 0.23357 
178.978195 0.054283 
179.752365 0.014325 
179.937546 0.317518 
180.961655 0.307063 
181.024643 0.013021 
181.9151 0.266803 
182.945068 0.056653 
182.96228 4.689486 
183.931824 0.014235 
183.948883 0.833162 
183.959839 0.019033 
183.967026 0.018943 
183.997833 0.014664 
184.922089 0.012232 
184.95752 1.147088 
185.322586 0.014125 
185.964661 0.594056 
186.673126 0.01444 
188.087906 0.014502 
189.574509 0.01408 
191.705612 0.012622 
191.965012 0.7151 
192.961807 61.425209 
193.941742 0.017694 
193.964233 24.857889 
193.978699 0.035174 
194.151474 0.016341 
194.962357 81.157799 
194.982819 0.026544 
194.999481 0.018892 
195.936386 2.346941 
195.959259 4.258932 
196.957581 20.164423 
197.946854 1.024007 
199.925934 0.133264 
207.125748 0.020393 
207.803345 0.016122 
209.975266 0.285908 
210.688629 0.028748 
210.879456 0.017494 
210.972275 25.952963 
211.951645 0.150731 
211.974594 11.656593 
211.992798 0.014564 
212.972687 100.0 
213.946762 4.520288 
213.970657 4.522675 
214.968094 22.878674 
215.292755 0.02357 
215.957214 0.142007 
216.460709 0.232751 
216.473373 0.239922 
217.484161 0.0142 
219.885895 0.012701 
223.867844 0.013395 
224.987946 0.921487 
225.088303 0.013754 
225.990219 0.295388 
226.988297 2.906031 
227.957596 0.273814 
227.98674 0.05819 
228.983963 0.608236 
230.983154 1.791886 
232.978882 0.266673 
233.304138 0.01626 
233.989029 0.061428 
235.640961 0.01774 
235.988602 0.30942 
242.195465 0.015153 
260.058197 0.047563 
260.730469 0.016834 
271.060242 0.148763 
271.137909 0.020678 
271.152161 0.393676 
271.187622 0.370488 
272.15332 0.018194 
272.294556 0.184555 
272.937103 0.033756 
272.975098 0.419635 
273.075653 0.458008 
273.131348 1.493742 
273.148865 0.089628 
273.167206 3.693189 
273.950165 0.020465 
274.134766 0.015277 
274.171234 0.3015 
274.273438 0.072426 
274.969818 0.029563 
275.110413 0.89475 
275.128632 0.019527 
275.146454 3.437225 
283.03125 0.01678 
290.947205 0.225472 
END IONS

