BEGIN IONS
PEPMASS=333.193
CHARGE=1+
COMPOUNDNAME=SPECTINOMYCIN
LIBRARYQUALITY=3
SMILES=N/A
INCHIKEY=UNFWWIHTNXNPBV-WXKVUWSESA-N
INCHI=InChI=1S/C14H24N2O7/c1-5-4-6(17)14(20)13(21-5)22-12-10(19)7(15-2)9(18)8(16-3)11(12)23-14/h5,7-13,15-16,18-20H,4H2,1-3H3/t5-,7-,8+,9+,10+,11-,12-,13+,14+/m1/s1
MSLEVEL=2
SOURCE_INSTRUMENT=N/A-Linear Ion Trap
FILENAME=library_mgf.mgf
SEQ=*..*
IONMODE=positive
ORGANISM=MONA
NAME=SPECTINOMYCIN M-H
PI=MoNA
DATACOLLECTOR=MoNA:VF-NPL-LTQ006457
PUBMED=N/A
SUBMITUSER=mwang87
TAGS=
SPECTRUMID=CCMSLIB00004689932
SCANS=5553
111.889999 32.269463 
134.929993 18.244619 
139.899994 100.0 
152.960007 33.750473 
179.970001 6.196754 
183.929993 4.154435 
205.020004 19.247751 
217.009995 6.429768 
219.020004 10.459341 
231.050003 6.908344 
243.059998 68.991707 
266.019989 7.711707 
284.059998 48.284744 
302.070007 89.745361 
END IONS

