BEGIN IONS
PEPMASS=470.0
CHARGE=1+
COMPOUNDNAME=MoNA:2296679 GNF-Pf-2016
LIBRARYQUALITY=3
SMILES=N/A
INCHIKEY=RXWNCPJZOCPEPQ-NVWDDTSBSA-N
INCHI=InChI=1S/C22H29N7O5/c1-28(2)19-17-20(25-10-24-19)29(11-26-17)22-18(31)16(15(9-30)34-22)27-21(32)14(23)8-12-4-6-13(33-3)7-5-12/h4-7,10-11,14-16,18,22,30-31H,8-9,23H2,1-3H3,(H,27,32)/t14-,15+,16+,18+,22+/m0/s1
MSLEVEL=2
SOURCE_INSTRUMENT=LC-ESI-QQ-LC-ESI-QQ
FILENAME=output_mgf.mgf
SEQ=*..*
IONMODE=
ORGANISM=MONA
NAME=MoNA:2296679 GNF-Pf-2016 [M-H]-
PI=MoNA
DATACOLLECTOR=MoNA
PUBMED=N/A
SUBMITUSER=mwang87
TAGS=
SPECTRUMID=CCMSLIB00000565311
SCANS=2563
162.0 1.122344 
376.3 0.059973 
470.5 100.0 
END IONS

