BEGIN IONS
PEPMASS=472.0
CHARGE=1+
COMPOUNDNAME=Massbank:KO003828 Puromycin
LIBRARYQUALITY=3
SMILES=COc(c4)ccc(c4)CC(N)C(=O)NC(C(CO)3)C(O)C(O3)n(c2)c(n1)c(n2)c(N(C)C)nc1
INCHIKEY=RXWNCPJZOCPEPQ-UHFFFAOYSA-N
INCHI=1S/C22H29N7O5/c1-28(2)19-17-20(25-10-24-19)29(11-26-17)22-18(31)16(15(9-30)34-22)27-21(32)14(23)8-12-4-6-13(33-3)7-5-12/h4-7,10-11,14-16,18,22,30-31H,8-9,23H2,1-3H3,(H,27,32)/t14-,15+,16+,18+,22+/m0/s1
MSLEVEL=2
SOURCE_INSTRUMENT=ESI-LC-ESI-QQ
FILENAME=Massbank_ESI_positive_8_1_2014_peaks.mgf
SEQ=*..*
IONMODE=Positive
ORGANISM=MASSBANK
NAME=Massbank:KO003828 Puromycin [M+H]+
PI=Putative Massbank Match
DATACOLLECTOR=Massbank
PUBMED=N/A
SUBMITUSER=mwang87
TAGS=
SPECTRUMID=CCMSLIB00000220183
SCANS=9625
150.3 158416.0 
160.0 34653.5 
160.4 14851.5 
164.5 693070.0 
175.4 44554.5 
244.3 9901.0 
281.2 29703.0 
291.6 34653.5 
292.4 49505.0 
309.5 11574269.0 
323.8 44554.5 
412.4 14851.5 
435.0 14851.5 
436.5 24752.5 
454.4 242574.5 
472.6 534530237.5 
END IONS

