BEGIN IONS
PEPMASS=580.0
CHARGE=1+
COMPOUNDNAME=MoNA:2354240 Streptomycin
LIBRARYQUALITY=3
SMILES=N/A
INCHIKEY=UCSJYZPVAKXKNQ-HZYVHMACSA-N
INCHI=InChI=1S/C21H39N7O12/c1-5-21(36,4-30)16(40-17-9(26-2)13(34)10(31)6(3-29)38-17)18(37-5)39-15-8(28-20(24)25)11(32)7(27-19(22)23)12(33)14(15)35/h4-18,26,29,31-36H,3H2,1-2H3,(H4,22,23,27)(H4,24,25,28)/t5-,6-,7+,8-,9-,10-,11+,12-,13-,14+,15+,16-,17-,18-,21+/m0/s1
MSLEVEL=2
SOURCE_INSTRUMENT=LC-ESI-QQ-LC-ESI-QQ
FILENAME=output_mgf.mgf
SEQ=*..*
IONMODE=
ORGANISM=MONA
NAME=MoNA:2354240 Streptomycin [M-H]-
PI=MoNA
DATACOLLECTOR=MoNA
PUBMED=N/A
SUBMITUSER=mwang87
TAGS=
SPECTRUMID=CCMSLIB00000572135
SCANS=9386
96.7 0.917431 
152.0 4.892966 
197.0 2.446483 
214.4 0.917431 
250.0 0.917431 
259.1 3.058104 
261.3 2.752294 
318.3 1.529052 
401.3 2.446483 
418.5 1.834862 
447.8 2.446483 
463.0 1.223242 
518.1 0.917431 
542.2 1.834862 
580.5 100.0 
END IONS

