BEGIN IONS
PEPMASS=351.22
CHARGE=1+
COMPOUNDNAME=Griseofulvin
LIBRARYQUALITY=3
SMILES=N/A
INCHIKEY=DDUHZTYCFQRHIY-RBHXEPJQSA-N
INCHI=InChI=1S/C17H17ClO6/c1-8-5-9(19)6-12(23-4)17(8)16(20)13-10(21-2)7-11(22-3)14(18)15(13)24-17/h6-8H,5H2,1-4H3/t8-,17+/m1/s1
MSLEVEL=2
SOURCE_INSTRUMENT=N/A-Linear Ion Trap
FILENAME=library_mgf.mgf
SEQ=*..*
IONMODE=negative
ORGANISM=MONA
NAME=Griseofulvin M-H
PI=MoNA
DATACOLLECTOR=MoNA:VF-NPL-LTQ000684
PUBMED=N/A
SUBMITUSER=mwang87
TAGS=
SPECTRUMID=CCMSLIB00004684928
SCANS=549
160.869995 11.7635 
160.889999 100.0 
243.139999 2.523334 
248.830002 8.0126 
275.109985 5.723269 
287.070007 18.637897 
289.070007 16.57992 
301.190002 1.702364 
305.160004 30.378437 
319.130005 20.210724 
END IONS

