BEGIN IONS
PEPMASS=173.009
CHARGE=1+
COMPOUNDNAME=Aconitic Acid
LIBRARYQUALITY=3
SMILES=N/A
INCHIKEY=GTZCVFVGUGFEME-IWQZZHSRSA-N
INCHI=InChI=1S/C6H6O6/c7-4(8)1-3(6(11)12)2-5(9)10/h1H,2H2,(H,7,8)(H,9,10)(H,11,12)/b3-1-
MSLEVEL=2
SOURCE_INSTRUMENT=N/A-ESI-QFT
FILENAME=library_mgf.mgf
SEQ=*..*
IONMODE=negative
ORGANISM=MONA
NAME=Aconitic Acid [M-H]-
PI=MoNA
DATACOLLECTOR=MoNA:VF-NPL-QEHF026288
PUBMED=N/A
SUBMITUSER=mwang87
TAGS=
SPECTRUMID=CCMSLIB00004717351
SCANS=26288
50.322731 0.015622 
50.36517 0.026746 
50.795067 0.015972 
51.410225 0.015578 
51.432228 0.023744 
51.681252 0.013552 
51.889137 0.022003 
52.031898 0.01508 
52.169533 0.015296 
53.158321 0.013385 
53.370296 0.014741 
53.577923 0.015033 
53.809071 0.022333 
54.526207 0.02811 
54.641689 0.020653 
55.364178 0.015949 
55.54591 0.015233 
55.766422 0.017491 
56.325272 0.018962 
57.346832 0.017139 
57.368587 0.019833 
57.963375 0.014583 
59.751156 0.017787 
60.463757 0.014636 
60.967884 0.029881 
61.948498 0.025146 
61.958134 0.020816 
63.199257 0.013512 
63.387909 0.021361 
63.914673 0.013129 
64.03714 0.03372 
64.210625 0.017977 
64.429893 0.025078 
65.412811 0.021105 
65.556442 0.023466 
65.75898 0.020401 
66.192543 0.015266 
66.928093 0.013554 
67.01754 0.410979 
68.480522 0.016061 
68.513046 0.022529 
69.419479 0.023163 
69.910828 0.016065 
70.023727 0.016817 
70.135269 0.021427 
70.740593 0.023122 
70.759575 0.037335 
70.89048 0.021107 
72.783638 0.020803 
72.933937 0.022121 
72.955322 0.023527 
72.991714 0.098907 
73.490776 0.013263 
73.7621 0.022221 
74.113678 0.030508 
74.974388 0.021782 
75.777473 0.035461 
75.923668 0.020106 
77.505791 0.025135 
77.996124 0.030211 
78.638641 0.015116 
78.798241 0.016565 
78.825081 0.028686 
79.103073 0.024472 
80.560478 0.021458 
81.345634 0.021435 
81.66011 0.013681 
81.753235 0.02543 
82.354683 0.022861 
82.99234 0.0241 
83.01236 0.027632 
83.097885 0.018941 
83.166115 0.043445 
84.888947 0.025079 
85.013847 0.437096 
85.028145 100.0 
85.042343 0.528622 
86.031479 4.448581 
86.261086 0.019962 
86.688728 0.022398 
87.851128 0.025045 
90.126335 0.026541 
90.274445 0.01297 
90.395081 0.01528 
91.198372 0.022176 
91.827606 0.025157 
93.172287 0.016808 
94.628273 0.033275 
94.648003 0.016364 
96.869995 0.013587 
100.636902 0.028143 
101.690598 0.019636 
102.136406 0.019781 
102.941948 0.027357 
104.631073 0.024737 
105.160568 0.025366 
107.514091 0.023738 
107.884781 0.02575 
108.636452 0.021444 
110.38134 0.018272 
111.007469 12.602172 
111.432198 0.020744 
112.01091 0.416413 
112.233246 0.026676 
112.540649 0.023541 
117.545959 0.025068 
117.714317 0.023353 
118.982742 0.028173 
119.123016 0.02428 
119.618752 0.019285 
123.574043 0.019315 
127.128136 0.022008 
128.601593 0.018736 
129.018051 5.360571 
130.021469 0.091505 
130.700089 0.013738 
130.86882 0.01617 
132.760864 0.018716 
132.927063 0.024708 
138.697617 0.020006 
144.359985 0.01962 
145.749557 0.016674 
152.146133 0.016774 
152.842499 0.015739 
153.981476 0.02682 
154.997604 0.30145 
158.552094 0.024428 
166.242859 0.028391 
172.829758 0.042056 
173.008286 0.075626 
183.257645 0.017366 
188.705048 0.01768 
190.728226 0.026969 
192.191025 0.033711 
193.262863 0.016276 
END IONS

