BEGIN IONS
PEPMASS=268.104
CHARGE=1+
COMPOUNDNAME=Adenosine
LIBRARYQUALITY=3
SMILES=N/A
INCHIKEY=OIRDTQYFTABQOQ-KQYNXXCUSA-N
INCHI=InChI=1S/C10H13N5O4/c11-8-5-9(13-2-12-8)15(3-14-5)10-7(18)6(17)4(1-16)19-10/h2-4,6-7,10,16-18H,1H2,(H2,11,12,13)/t4-,6-,7-,10-/m1/s1
MSLEVEL=2
SOURCE_INSTRUMENT=N/A-ESI-QFT
FILENAME=library_mgf.mgf
SEQ=*..*
IONMODE=positive
ORGANISM=MONA
NAME=Adenosine [M+H]+
PI=MoNA
DATACOLLECTOR=MoNA:VF-NPL-QEHF000392
PUBMED=N/A
SUBMITUSER=mwang87
TAGS=
SPECTRUMID=CCMSLIB00004691455
SCANS=392
50.145504 0.0094 
50.34119 0.008359 
50.370598 0.014446 
51.787567 0.013739 
51.887527 0.0092 
52.169853 0.015405 
52.662529 0.018054 
52.877235 0.016595 
53.634739 0.018252 
54.155991 0.010702 
54.251141 0.010477 
54.408573 0.018735 
54.870274 0.014657 
55.018589 0.639039 
56.156681 0.017693 
56.196426 0.017974 
56.207703 0.021903 
56.664143 0.012949 
56.956963 0.097889 
57.034248 1.082018 
58.681694 0.012636 
59.049877 0.066938 
60.416847 0.009743 
61.011387 9.546941 
61.029079 0.035334 
62.010784 0.022611 
62.014694 0.139065 
62.019276 0.02417 
62.678795 0.015817 
62.737614 0.021911 
63.007141 0.443936 
63.471134 0.016858 
64.007172 0.022459 
64.12075 0.019768 
67.514359 0.008535 
67.840416 0.022648 
68.394402 0.017895 
69.034203 0.289777 
69.080795 0.019832 
70.103096 0.017191 
70.958534 0.160021 
71.01342 0.154766 
71.953873 0.011159 
72.533943 0.01935 
72.937737 0.023467 
73.029022 0.466957 
75.015068 0.018206 
81.070358 0.019114 
81.445946 0.021501 
82.268837 0.018019 
82.358337 0.022427 
83.238342 0.022224 
84.050224 0.016262 
84.957703 0.018003 
85.028961 0.640655 
87.044571 0.057032 
89.409683 0.017288 
90.801514 0.015829 
90.948364 0.01165 
91.469307 0.011395 
91.672249 0.015029 
92.144974 0.011065 
93.070381 0.130217 
94.039986 0.010758 
94.683647 0.017274 
97.028824 0.165582 
97.185226 0.016132 
98.975731 1.454114 
103.039421 0.069189 
103.371826 0.012932 
104.186859 0.018265 
108.71524 0.015032 
111.585258 0.021843 
115.0392 0.34496 
116.38588 0.014363 
116.986137 0.889869 
118.048401 0.017928 
118.257996 0.018649 
118.500641 0.016864 
118.569244 0.017412 
119.035233 0.035113 
120.011787 0.017424 
120.672318 0.017815 
120.940765 0.036709 
122.941101 0.105831 
123.067024 0.009151 
123.279884 0.02016 
123.301773 0.016846 
123.817299 0.009276 
124.112282 0.705402 
124.936958 0.012446 
125.115913 0.011781 
127.656937 0.017718 
129.927307 0.017656 
131.023666 0.021086 
131.138107 0.015371 
132.853546 0.014324 
132.958389 0.496254 
133.049515 0.130959 
133.948303 0.044185 
134.996597 0.15174 
136.061768 100.0 
137.058838 1.905094 
137.065109 5.538714 
138.077423 0.063248 
138.95108 0.021467 
140.082657 0.012078 
146.976456 0.511254 
147.974854 0.209605 
148.027466 0.019009 
148.971832 8.874923 
149.971985 0.141656 
150.077484 0.097736 
150.681076 0.018435 
150.951065 0.336579 
150.968002 0.692705 
151.95874 0.021819 
152.951416 0.440529 
152.967667 0.081567 
153.959366 0.351804 
154.946899 0.123843 
155.954926 0.109068 
161.836395 0.016509 
162.951126 0.015611 
164.940231 0.022589 
164.986816 0.029078 
165.937836 0.038335 
166.982361 1.733558 
167.648697 0.023375 
167.954254 0.023861 
168.916931 0.043955 
168.982986 0.147745 
171.904526 0.020858 
172.957428 0.02482 
176.989243 0.063845 
177.938324 0.547591 
180.961685 0.135801 
183.949081 0.013257 
186.92775 0.338352 
188.924255 0.032008 
190.966431 0.290031 
191.964478 0.156364 
192.961639 4.913769 
193.964523 0.158371 
194.962433 0.053947 
195.000061 0.083731 
195.948761 0.454137 
196.957016 0.023437 
198.305161 0.016405 
201.425629 0.016184 
204.428741 0.018283 
207.99115 0.022295 
208.976913 0.03614 
209.975479 0.099466 
210.443665 0.013216 
210.972198 3.116462 
212.972504 0.21946 
214.967941 0.050096 
215.153976 0.010698 
216.954285 0.058065 
216.967545 0.217509 
216.974152 0.087818 
216.983002 0.075742 
220.229431 0.012916 
238.70282 0.017867 
265.047333 0.016663 
268.103271 0.050244 
268.994049 0.010342 
269.137421 0.017609 
269.763733 0.020004 
274.144836 0.012054 
274.163086 0.018819 
279.121338 0.019313 
283.75119 0.023366 
287.219849 0.022652 
290.175171 0.37179 
291.177002 0.011202 
294.798248 0.017987 
301.837891 0.016229 
305.002106 0.019127 
307.308685 0.013379 
308.463837 0.011461 
END IONS

