BEGIN IONS
PEPMASS=276.0
CHARGE=1+
COMPOUNDNAME=Massbank:KO002825 Eserine|Physostigmine
LIBRARYQUALITY=3
SMILES=CNC(=O)Oc(c3)cc(c(c3)1)C(C)(C2)C(N(C)C2)N(C)1
INCHIKEY=PIJVFDBKTWXHHD-UHFFFAOYSA-N
INCHI=1S/C15H21N3O2/c1-15-7-8-17(3)13(15)18(4)12-6-5-10(9-11(12)15)20-14(19)16-2/h5-6,9,13H,7-8H2,1-4H3,(H,16,19)/t13-,15+/m1/s1
MSLEVEL=2
SOURCE_INSTRUMENT=ESI-LC-ESI-QQ
FILENAME=Massbank_ESI_positive_8_1_2014_peaks.mgf
SEQ=*..*
IONMODE=Positive
ORGANISM=MASSBANK
NAME=Massbank:KO002825 Eserine|Physostigmine [M+H]+
PI=Putative Massbank Match
DATACOLLECTOR=Massbank
PUBMED=N/A
SUBMITUSER=mwang87
TAGS=
SPECTRUMID=CCMSLIB00000218150
SCANS=8627
77.8 44554.5 
82.1 168317.0 
95.8 29703.0 
101.9 2252477.5 
110.8 19802.0 
114.0 44554.5 
129.0 29703.0 
134.1 138614.0 
146.2 24752.5 
162.0 1589110.5 
175.3 638614.5 
176.2 396040.0 
185.1 54455.5 
188.2 19802.0 
189.3 158416.0 
197.5 59406.0 
199.5 79208.0 
203.0 99010.0 
216.2 133663.5 
217.5 108911.0 
219.3 93287222.0 
220.7 14851.5 
226.9 69307.0 
231.2 529703.5 
232.0 29703.0 
233.4 3099013.0 
241.3 108911.0 
245.7 376238.0 
258.1 64356.5 
259.4 1821784.0 
276.6 124920917.0 
294.5 84158.5 
END IONS

