BEGIN IONS
PEPMASS=443.219
CHARGE=1+
COMPOUNDNAME=LOVASTATIN
LIBRARYQUALITY=3
SMILES=N/A
INCHIKEY=PCZOHLXUXFIOCF-BXMDZJJMSA-N
INCHI=InChI=1S/C24H36O5/c1-5-15(3)24(27)29-21-11-14(2)10-17-7-6-16(4)20(23(17)21)9-8-19-12-18(25)13-22(26)28-19/h6-7,10,14-16,18-21,23,25H,5,8-9,11-13H2,1-4H3/t14-,15-,16-,18+,19+,20-,21-,23-/m0/s1
MSLEVEL=2
SOURCE_INSTRUMENT=N/A-ESI-QFT
FILENAME=library_mgf.mgf
SEQ=*..*
IONMODE=positive
ORGANISM=MONA
NAME=LOVASTATIN [M+K]+
PI=MoNA
DATACOLLECTOR=MoNA:VF-NPL-QEHF003461
PUBMED=N/A
SUBMITUSER=mwang87
TAGS=
SPECTRUMID=CCMSLIB00004694524
SCANS=3461
50.323433 0.090419 
50.614944 0.647894 
51.90052 1.026369 
52.012142 0.121812 
52.087471 1.804893 
52.187702 0.115802 
52.489635 0.12187 
53.317863 0.110264 
53.428196 1.545703 
54.29604 0.615101 
54.306786 1.621988 
55.055008 0.302616 
55.508392 0.945734 
55.913151 1.050866 
56.050396 0.115404 
56.103996 0.846902 
56.54752 1.145435 
56.917366 1.044484 
56.965523 2.896202 
57.034252 6.680682 
57.070644 5.09208 
57.136707 1.881602 
57.150406 0.715983 
57.702694 0.097575 
57.863403 1.480833 
58.694675 0.596765 
58.807865 0.132438 
59.011204 0.514856 
59.049896 100.0 
59.209442 0.659695 
59.66975 0.193916 
60.053242 1.775414 
60.43121 0.64257 
61.011246 0.150988 
61.363804 1.091838 
61.779369 0.153754 
62.034344 0.642013 
62.060833 0.703391 
63.268993 1.648625 
63.813755 0.93616 
64.126625 0.867842 
65.086182 0.103963 
65.327049 0.088374 
66.568611 0.498089 
66.801399 1.774649 
66.87146 1.654284 
66.896622 0.505969 
66.903549 0.12245 
67.054871 0.216291 
67.377502 1.833319 
67.578728 0.747696 
67.77964 1.565107 
68.089996 0.672261 
68.251785 0.567583 
69.070587 0.564206 
69.165001 0.500809 
69.79686 0.848165 
70.187637 0.111586 
70.278915 1.51897 
70.613167 1.876218 
70.62307 0.102758 
71.086197 0.901918 
71.716225 1.518166 
71.786674 1.54965 
72.015762 0.634055 
72.336746 1.528466 
73.029129 1.085176 
73.047455 5.405031 
73.793449 1.097636 
74.109573 1.099149 
74.681465 0.088493 
74.985252 1.827212 
75.625061 0.143923 
76.325333 0.205705 
77.793228 0.125435 
79.054634 0.149506 
79.135452 1.522333 
79.801025 0.092973 
80.074425 1.545755 
81.017799 0.631648 
81.070488 1.670684 
81.095016 1.27753 
81.881088 1.20015 
84.081306 0.202964 
84.620743 0.491662 
85.065453 0.098921 
87.04464 0.531428 
87.10054 0.181076 
88.512894 0.104369 
88.644051 0.1419 
88.822151 0.599402 
89.060165 3.279534 
89.10762 1.323039 
89.386688 1.754741 
90.373917 1.621119 
91.054924 0.828787 
91.057915 12.530456 
91.964394 1.570919 
92.31443 0.858832 
93.070129 1.088729 
94.130356 1.131463 
94.772125 0.125863 
95.085983 0.569265 
96.101334 0.739086 
97.035858 0.116095 
97.065239 0.71159 
97.101814 0.126698 
97.508835 0.204065 
98.411522 0.816355 
98.490265 1.110701 
99.080849 0.24721 
100.053452 1.264599 
100.63266 0.469438 
101.001297 0.121495 
101.799919 0.107195 
102.091881 0.645662 
103.023544 1.373295 
104.500381 0.101507 
105.070229 0.554817 
105.135895 1.196905 
106.336487 0.857355 
106.862785 0.114216 
107.085983 0.191515 
107.695786 0.136584 
108.014008 1.241811 
108.679314 0.99954 
108.911469 0.104888 
109.047523 0.83399 
109.101341 0.23788 
109.186012 0.230817 
111.331223 0.753775 
115.075447 0.644381 
117.069977 0.569627 
117.09127 2.086095 
117.095505 0.101225 
118.975563 0.758673 
120.226799 1.128212 
121.064987 1.192726 
122.056816 1.620118 
123.07962 0.211852 
123.117149 0.135656 
124.039345 0.219568 
125.993927 0.606297 
127.642685 0.78795 
128.598938 0.146638 
128.712387 0.904299 
130.757614 0.112423 
131.085541 2.901563 
131.592606 1.690914 
131.659882 1.780561 
133.148972 0.148188 
133.794449 1.903013 
134.327789 0.108178 
136.254547 0.158 
136.940567 0.213236 
137.965088 0.120984 
138.753204 1.578147 
141.022247 0.195979 
141.052322 0.780096 
141.394226 1.688065 
142.296143 0.261221 
143.085449 0.803859 
143.927185 0.252459 
145.100967 1.313121 
146.529984 1.154761 
146.67897 0.243932 
146.72522 0.59149 
148.464066 0.763722 
149.04512 0.306813 
149.391068 1.115612 
151.77533 1.801353 
157.101089 0.360226 
157.945435 0.121299 
158.109009 0.139544 
159.032867 0.800932 
159.116699 1.032017 
159.160355 0.842512 
159.575012 0.532825 
161.036407 0.19859 
162.730606 1.285865 
167.055405 2.676195 
168.962585 0.763792 
169.101257 0.2682 
169.599319 0.9724 
171.097412 1.637319 
173.132416 3.587248 
173.24559 0.132604 
173.62326 0.114374 
176.967728 0.101744 
177.043472 8.997716 
178.098907 0.137063 
180.243317 1.555179 
183.809525 0.135344 
185.527847 0.112454 
189.681381 1.186376 
192.345703 1.141631 
195.054123 2.918836 
196.237152 1.910728 
196.270966 0.513152 
196.695618 0.502882 
198.954117 0.521845 
199.003418 1.056844 
199.148346 0.548649 
201.773361 0.903813 
202.268936 0.482664 
204.303162 1.034579 
205.121262 1.140196 
206.977753 1.302725 
207.006363 1.833261 
207.979019 0.157292 
208.946564 1.787628 
211.277969 1.420632 
212.070572 0.881947 
212.783722 0.690006 
213.674561 36.141834 
213.685974 72.850616 
215.077911 1.933487 
219.649811 1.157009 
221.088516 0.82099 
225.042953 1.802888 
227.748032 0.089154 
228.889023 0.123565 
229.224228 0.678013 
230.603622 1.785163 
233.208817 0.76134 
234.518082 1.282156 
237.077118 0.585209 
238.762527 0.827446 
240.480652 2.027609 
246.366852 1.895501 
247.113815 1.153534 
248.758987 0.149857 
252.716263 0.12871 
255.089828 1.113434 
256.299011 0.731982 
259.718384 0.225237 
261.561279 0.119369 
267.027832 0.761559 
267.193542 0.120734 
275.232208 0.637341 
275.961182 0.631579 
281.12088 0.633866 
283.261566 0.191623 
284.26651 0.402433 
291.8479 0.757236 
297.115814 1.101328 
299.131592 14.417692 
300.059021 0.740113 
300.135254 1.653539 
304.485626 2.006816 
308.590454 1.181733 
309.278625 0.164303 
309.62619 0.682314 
310.846771 0.822063 
311.182892 1.953448 
311.29483 2.027923 
315.126129 0.306771 
316.375519 1.04955 
317.142242 3.599841 
318.144867 0.371262 
324.21347 1.909475 
324.325867 3.603677 
325.177429 12.140487 
325.328156 0.246444 
326.180634 2.203652 
331.491852 0.549236 
333.702728 0.131769 
333.968964 0.738024 
339.213837 1.332713 
341.171997 4.479516 
341.229828 2.812768 
341.324493 0.162277 
342.233398 0.387649 
342.99707 0.581895 
343.188202 0.586119 
365.507141 1.749716 
367.313751 0.096036 
367.633209 1.052869 
369.099548 0.134317 
377.976074 0.48124 
395.399323 1.62763 
396.050781 0.51584 
407.521759 1.911615 
420.698181 0.697469 
443.262695 0.951496 
443.299438 0.117706 
443.335114 8.574984 
444.337524 0.301602 
445.277222 13.545613 
447.256714 0.119762 
469.438812 0.106637 
END IONS

