BEGIN IONS
PEPMASS=384.25
CHARGE=1+
COMPOUNDNAME=ACTINONIN
LIBRARYQUALITY=3
SMILES=N/A
INCHIKEY=XJLATMLVMSFZBN-VYDXJSESSA-N
INCHI=InChI=1S/C19H35N3O5/c1-4-5-6-8-14(11-16(24)21-27)18(25)20-17(13(2)3)19(26)22-10-7-9-15(22)12-23/h13-15,17,23,27H,4-12H2,1-3H3,(H,20,25)(H,21,24)/t14-,15+,17+/m1/s1
MSLEVEL=2
SOURCE_INSTRUMENT=N/A-ESI-QFT
FILENAME=library_mgf.mgf
SEQ=*..*
IONMODE=negative
ORGANISM=MONA
NAME=ACTINONIN [M-H]-
PI=MoNA
DATACOLLECTOR=MoNA:VF-NPL-QEHF027309
PUBMED=N/A
SUBMITUSER=mwang87
TAGS=
SPECTRUMID=CCMSLIB00004720890
SCANS=27309
50.455688 0.278489 
50.689682 0.405109 
50.840527 0.249281 
50.856972 0.294497 
51.055721 0.314741 
51.202564 0.343794 
51.246441 0.321332 
51.397232 0.320182 
51.758797 0.303551 
52.056339 0.21879 
52.130806 0.258264 
52.358871 0.236642 
52.392906 0.304621 
52.877197 0.420274 
52.98822 0.332588 
53.084728 0.333043 
53.622341 0.328174 
53.809788 0.250317 
54.520493 0.328269 
55.547569 0.20477 
55.592922 0.325062 
55.636604 0.20741 
55.67514 0.290715 
56.393948 0.225394 
57.224281 0.227131 
57.354534 0.295087 
57.391727 0.309025 
57.991997 2.638718 
58.735523 0.27765 
58.803822 0.272663 
59.012398 0.512062 
59.191795 0.281863 
59.980549 0.244875 
60.237034 0.310252 
60.248817 0.409502 
60.280155 0.272506 
60.37067 0.387332 
60.910938 0.243203 
61.148685 0.324413 
61.231785 0.23003 
61.472244 0.232048 
61.577389 0.312594 
62.369469 0.267928 
62.505344 0.389738 
63.514259 0.272478 
63.820267 0.340133 
64.231911 0.298974 
64.408585 0.209085 
64.654686 0.257214 
64.704147 0.256545 
64.988914 0.251531 
65.232109 0.182758 
65.624245 0.34594 
66.028465 0.286713 
66.645157 0.219629 
66.820465 0.248697 
66.858658 0.391942 
67.550209 0.380938 
69.483757 0.412538 
70.028404 1.592603 
70.423805 0.281056 
71.103195 0.278594 
72.00769 0.953549 
72.246674 0.224921 
72.98082 0.357273 
73.046272 0.336746 
73.381065 0.301149 
73.738899 0.306799 
73.899925 0.46534 
74.347733 0.339255 
74.360016 0.388423 
75.352356 0.254573 
75.925056 0.369781 
76.363647 0.309169 
78.132057 0.461435 
78.255783 0.30982 
78.663483 0.275619 
79.000656 0.393294 
79.12851 0.267577 
80.03801 0.39683 
80.049103 1.570036 
80.578903 0.361537 
80.599937 0.303069 
80.658272 0.366337 
80.721916 0.234206 
80.975189 0.298534 
81.020645 0.7386 
81.383751 0.323109 
81.61515 0.327513 
82.064819 2.631453 
83.048874 0.758746 
84.75238 0.352491 
84.911339 0.264805 
85.064476 0.514311 
85.473312 0.216707 
85.957718 0.231463 
86.91803 0.204887 
86.927788 0.348645 
87.479546 0.397032 
87.679848 0.367622 
89.425972 0.339948 
89.639282 0.238205 
90.733688 0.219246 
91.558228 0.355141 
93.344635 0.353613 
93.535492 0.440702 
93.948364 0.228541 
94.028427 3.951744 
94.064789 0.343658 
96.007698 26.756716 
97.015495 1.495247 
98.059662 1.467025 
98.665298 0.267 
98.987778 0.220686 
100.075348 1.58516 
100.643204 0.434 
102.237434 0.331692 
103.165634 0.290657 
104.692192 0.341809 
104.993027 0.209352 
106.268219 0.269706 
107.414398 0.294697 
109.015366 0.253335 
109.679588 0.283276 
110.023445 1.005659 
111.0728 0.301262 
111.0802 41.664066 
111.396729 0.29823 
112.190338 0.240463 
112.558144 0.300116 
113.095894 6.992804 
113.263504 0.396522 
113.657547 0.335153 
114.139008 0.359942 
114.62207 0.351955 
116.070099 1.065533 
116.898766 0.639333 
121.258369 0.369811 
121.957451 0.200171 
122.340714 0.376111 
123.030289 0.331513 
124.075493 0.349709 
124.559235 0.405319 
125.095627 1.403873 
126.054695 5.81613 
129.09082 1.22442 
131.53392 0.314013 
133.37381 0.308747 
133.393204 0.301991 
133.736191 0.328881 
133.919571 0.32939 
135.055252 0.681555 
135.66684 0.388533 
139.107666 0.198342 
139.861908 0.367789 
139.911087 0.247406 
140.481781 0.217788 
140.623596 0.271887 
141.09082 60.757656 
141.866287 0.293156 
142.09407 0.507043 
142.432297 0.300971 
142.569473 0.431925 
142.976837 0.22896 
143.243225 0.407932 
144.678009 0.329022 
145.018692 0.292743 
149.070847 0.260314 
150.896912 0.193364 
151.063065 0.230177 
151.098846 1.86086 
152.070511 13.127681 
152.106949 8.430331 
153.05246 0.339454 
156.021835 0.240878 
158.481705 0.315905 
158.876724 0.27314 
162.688599 0.249405 
165.01358 0.274463 
165.088913 0.425956 
166.086273 9.719957 
166.975571 0.334583 
168.101959 100.0 
169.105423 3.277588 
169.883896 0.316499 
170.088684 0.362925 
170.352692 0.366202 
171.263992 0.256742 
176.116486 0.253408 
177.867386 0.204714 
179.094208 2.675941 
181.109787 0.840567 
181.34407 0.393511 
182.706604 0.33726 
183.113297 0.377045 
185.42041 0.300306 
186.264816 0.303302 
192.18074 0.204935 
193.705704 0.447589 
195.92038 0.232979 
196.169662 0.739971 
199.553406 0.297825 
200.089249 0.276202 
204.254135 0.348296 
205.398422 0.37672 
206.063522 0.428454 
206.153931 0.430235 
207.13829 10.659593 
208.133606 1.86867 
210.092651 0.323078 
216.510559 0.324057 
217.674545 0.465927 
218.402222 0.416896 
219.816299 5.274614 
221.165634 0.305175 
222.149231 0.685655 
222.788635 0.394875 
224.821518 0.390287 
228.362717 0.302633 
231.770752 0.246595 
234.429718 0.266092 
234.526489 0.251457 
237.024521 0.385818 
239.536194 0.425728 
242.066528 0.498403 
243.769562 0.300751 
244.333923 0.367307 
244.510986 0.302114 
246.296631 0.387984 
247.943649 0.274824 
248.870239 0.25472 
249.543289 0.33118 
251.459473 0.367026 
261.164398 0.350882 
262.26593 0.37673 
265.003937 0.296663 
266.76532 0.2731 
267.611145 0.374208 
272.653503 0.331752 
273.838226 0.30795 
276.448639 0.384796 
281.313995 0.370932 
283.421387 0.247104 
284.857971 0.293576 
285.628113 0.430637 
285.642242 0.395394 
286.838196 0.38109 
286.98642 0.324076 
288.950226 0.488892 
289.234161 0.261496 
303.836761 0.241384 
306.929474 0.344426 
307.539642 0.327571 
315.283112 0.428714 
315.615143 0.345784 
323.401001 0.39954 
327.183289 0.257009 
333.252136 0.477331 
333.32019 0.373868 
333.383942 0.314724 
333.448486 0.377466 
337.377594 0.307858 
345.141479 0.295143 
347.253143 0.367669 
347.371338 0.332714 
351.23764 0.329467 
379.727356 0.248292 
385.240204 0.296294 
385.74295 0.300157 
391.884644 0.298895 
402.867798 0.420547 
403.624084 0.365077 
409.989868 0.270501 
END IONS

