BEGIN IONS
PEPMASS=369.11
CHARGE=1+
COMPOUNDNAME=Gibberellin A4&A7
LIBRARYQUALITY=3
SMILES=N/A
INCHIKEY=SEEGHKWOBVVBTQ-UKJRIFTCSA-N
INCHI=InChI=1S/C19H22O5/c1-9-7-18-8-10(9)3-4-11(18)19-6-5-12(20)17(2,16(23)24-19)14(19)13(18)15(21)22/h5-6,10-14,20H,1,3-4,7-8H2,2H3,(H,21,22)/t10-,11-,12+,13-,14-,17+,18+,19-/m1/s1
MSLEVEL=2
SOURCE_INSTRUMENT=N/A-ESI-QFT
FILENAME=library_mgf.mgf
SEQ=*..*
IONMODE=positive
ORGANISM=MONA
NAME=Gibberellin A4&A7 [M+K]+
PI=MoNA
DATACOLLECTOR=MoNA:VF-NPL-QEHF006596
PUBMED=N/A
SUBMITUSER=mwang87
TAGS=
SPECTRUMID=CCMSLIB00004697659
SCANS=6596
50.327084 0.042441 
50.532497 0.07051 
50.834476 0.075132 
50.853352 0.066219 
51.386425 0.075944 
53.002998 0.075717 
53.03936 0.118281 
53.141117 0.087446 
53.448536 0.080969 
53.46936 0.089978 
53.847721 0.085651 
54.15065 0.08427 
54.162956 0.076641 
54.351055 0.076972 
54.476257 0.036288 
55.018616 1.363202 
55.053627 0.042959 
55.054993 7.460723 
55.487114 0.027675 
55.66901 0.038729 
55.708111 0.053899 
55.727501 0.076483 
56.050179 0.393326 
56.289444 0.075474 
56.610535 0.029567 
56.965572 0.12052 
57.034237 0.9707 
57.070641 13.114702 
58.065891 6.55059 
58.073936 0.059901 
58.156574 0.075404 
58.170979 0.094769 
59.049881 0.82345 
59.061131 0.353858 
59.069283 0.041139 
59.337929 0.063908 
59.441414 0.048622 
60.045116 0.295629 
60.081512 27.29254 
60.08334 0.20462 
60.177769 0.039675 
60.381012 0.060588 
60.763954 0.081445 
60.901283 0.021451 
61.011341 0.10293 
61.084877 0.266829 
62.103115 0.026307 
62.115231 0.026553 
62.239235 0.074915 
62.909733 0.02487 
62.982468 0.95619 
63.907043 0.038252 
63.998444 0.062314 
64.662254 0.028995 
64.904663 0.074378 
65.382057 0.085519 
65.885269 0.039635 
67.054939 10.768524 
67.616013 0.038751 
68.006271 0.092867 
68.050011 0.03565 
68.058197 0.116613 
68.253143 0.069092 
68.578949 0.06392 
68.965157 0.033625 
69.03418 1.269123 
69.070549 7.518204 
69.499001 0.04028 
70.029465 0.029892 
70.065773 0.727472 
71.049812 1.54713 
71.086189 10.277898 
72.081421 0.152252 
72.089317 0.035185 
72.135246 0.054404 
72.225319 0.079138 
72.547585 0.056859 
73.0289 0.042566 
73.04747 4.028521 
73.065376 0.09009 
74.043365 0.06185 
74.06086 0.034012 
74.55146 0.077677 
74.806564 0.028804 
75.404579 0.082761 
76.905602 0.047794 
78.021736 0.048916 
79.021751 0.464978 
79.054794 6.779109 
79.725616 0.076694 
80.050079 0.165397 
80.057999 0.10717 
80.245766 0.079619 
80.641518 0.100246 
81.034035 0.571542 
81.070457 12.382025 
81.07312 0.103603 
81.217964 0.105803 
81.98716 0.073828 
82.065643 0.339205 
82.073738 0.366621 
83.04081 0.062453 
83.049675 2.221268 
83.086082 6.96664 
84.044945 0.402973 
84.081314 0.588838 
84.083939 0.025464 
84.089447 0.12337 
84.588097 0.066866 
84.987831 0.086313 
85.028946 0.49539 
85.065285 1.599682 
85.10173 3.183219 
86.060501 0.084775 
86.096916 1.329674 
86.247734 0.078513 
86.847847 0.085038 
87.044525 0.743172 
87.408882 0.078392 
88.039673 0.048934 
88.076134 0.150012 
89.060234 0.903055 
89.662674 0.091037 
91.054672 5.694492 
91.057838 10.671795 
91.340942 0.079448 
92.058006 0.0961 
93.070297 8.206246 
93.971634 0.100254 
94.065483 0.077728 
94.073578 0.245604 
95.049568 2.704204 
95.085983 12.169156 
96.008873 0.035369 
96.044792 0.079735 
96.0812 0.126413 
96.089325 0.572408 
97.028801 0.208087 
97.065231 2.458426 
97.101585 5.899264 
98.060486 0.241284 
98.068558 0.031267 
98.096931 0.151772 
98.105026 0.044324 
99.044388 0.550597 
99.080841 2.643756 
99.490463 0.039612 
99.822052 0.041184 
100.075981 1.360136 
100.11245 0.024369 
100.151726 0.049798 
101.003448 0.137946 
101.02346 0.108705 
101.028328 0.083674 
101.060097 1.031218 
102.01123 0.072835 
102.091652 0.416843 
103.054482 0.089937 
105.070206 4.587361 
105.073746 0.089715 
105.907265 0.093638 
106.065239 0.059548 
106.073509 0.156276 
106.4851 0.041973 
106.51886 0.031246 
107.049492 1.136865 
107.085869 7.898704 
107.089531 0.092678 
108.081123 0.314112 
108.088943 0.239127 
109.065018 2.041389 
109.10144 7.560179 
110.060249 0.764926 
110.104652 0.191571 
111.044304 1.156688 
111.080704 1.909421 
111.116867 0.236084 
112.047516 0.032609 
112.075912 0.539858 
112.112434 0.429554 
112.654343 0.055525 
112.826714 0.039134 
112.861519 0.101381 
113.059906 0.465654 
113.096291 0.220532 
113.214752 0.041068 
113.665298 0.066803 
114.054924 0.035511 
114.854027 0.060282 
115.075752 0.035585 
115.221252 0.044952 
116.052879 0.10065 
117.07 1.657783 
117.531067 0.088393 
119.085678 5.623781 
120.081032 0.300626 
120.088989 0.090773 
120.277557 0.061534 
121.039642 0.04544 
121.064941 2.334977 
121.101372 4.792334 
121.132179 0.063557 
121.704659 0.042396 
122.060165 0.10102 
122.096558 0.038359 
122.104561 0.129177 
123.044205 0.267689 
123.080536 2.661394 
123.11692 1.500808 
124.03933 0.154935 
124.075851 0.114662 
124.112427 0.040107 
124.132988 0.053193 
125.059731 1.175803 
125.096283 3.380643 
126.091515 0.59932 
126.099586 0.04273 
126.848557 0.081173 
127.038742 0.051178 
127.075607 0.226667 
127.375046 0.068163 
127.656113 0.108344 
129.069916 0.620151 
131.049408 0.07941 
131.085556 3.596177 
132.088684 0.038924 
133.064774 0.506938 
133.101227 5.112644 
134.059937 0.092584 
134.104446 0.138846 
134.484497 0.072008 
134.978668 1.076565 
135.044235 0.158783 
135.061554 0.096393 
135.08046 2.972883 
135.116776 1.646031 
136.075409 0.283787 
136.083893 0.03123 
136.111633 0.103665 
136.137512 0.050787 
137.059525 1.145402 
137.09613 1.76107 
137.132706 0.04095 
138.054886 0.119478 
138.091217 0.432236 
138.395599 0.069427 
139.038651 0.048313 
139.075287 3.59817 
139.111603 0.478844 
139.431747 0.062442 
140.071243 0.035515 
140.143478 0.038065 
141.069778 0.095678 
141.090805 0.10494 
141.126862 0.067294 
141.705551 0.025903 
142.086578 0.031299 
142.670441 0.063503 
142.772385 0.071668 
143.070496 0.029118 
143.085526 1.318699 
144.0811 0.063277 
145.064499 0.343055 
145.101059 3.130161 
145.468857 0.063055 
145.747879 0.093934 
146.059998 0.061436 
146.104233 0.119481 
146.431595 0.047691 
146.61441 0.050362 
146.759598 0.048211 
147.080414 1.218145 
147.116776 1.879161 
147.910583 0.04382 
148.112 2.028354 
148.360489 0.072132 
148.448318 0.079808 
149.059616 0.384751 
149.096085 2.453773 
149.115295 0.734874 
149.132339 0.279401 
150.067429 0.034655 
150.091202 0.285332 
150.098694 0.121661 
150.483093 0.064552 
150.589127 0.054764 
151.038467 0.037775 
151.075363 0.274896 
151.11171 0.968052 
152.07045 0.236706 
152.106979 0.25308 
152.114395 0.02923 
152.374634 0.081806 
152.783707 0.046533 
152.988998 1.457749 
153.090942 2.159443 
153.127243 0.09203 
154.050171 0.041276 
154.084564 0.046748 
154.094345 0.045657 
154.122559 0.825493 
154.158981 0.050849 
154.876511 0.076259 
155.085571 0.525687 
155.106079 0.065226 
156.137589 0.028895 
156.215866 0.07937 
156.441467 0.081666 
157.023575 0.856405 
157.064957 0.208114 
157.101135 1.492749 
158.859421 0.050792 
159.080261 0.575295 
159.116776 1.420478 
160.111847 0.030023 
160.120361 0.087139 
161.059372 0.175607 
161.095993 1.75925 
161.13237 0.776933 
162.091202 0.148684 
162.127487 0.083331 
162.59964 0.025158 
163.038803 0.374061 
163.075378 0.442834 
163.111664 1.686265 
163.147858 0.029852 
164.070175 0.053526 
164.106934 0.313537 
165.090988 0.410233 
165.127274 0.192355 
166.086075 0.221304 
166.122849 0.118059 
166.401169 0.034742 
167.055069 0.107934 
167.070587 0.062982 
167.085526 0.087678 
167.106583 0.277898 
168.101257 0.051944 
168.137665 0.083847 
168.830521 0.043367 
169.10112 0.492627 
169.122147 0.049077 
170.724869 0.096262 
170.963455 0.809166 
170.999786 0.116855 
171.080383 0.227383 
171.116776 0.911305 
173.059189 0.038989 
173.096268 1.050827 
173.132431 0.447454 
174.423935 0.066336 
174.723663 0.075953 
175.036545 1.380903 
175.075516 0.204889 
175.11174 0.775941 
175.148056 0.432218 
176.070557 0.035918 
176.106659 0.05613 
176.114334 0.043535 
177.090912 0.646355 
177.127426 0.470916 
178.085739 0.30269 
178.12233 0.112522 
179.070099 0.033715 
179.085617 0.044857 
179.106262 0.213931 
179.143112 0.029202 
179.510864 0.077149 
180.065048 0.038409 
180.101639 0.476902 
180.138123 0.040908 
181.08638 0.083737 
181.101013 0.828917 
181.122223 0.102319 
182.081451 0.319054 
182.117554 0.082382 
183.101715 0.031771 
183.116699 1.211876 
185.096054 0.25614 
185.132355 0.494958 
187.035583 0.037813 
187.076004 0.03339 
187.111649 0.624831 
187.130219 0.115682 
187.14801 0.176923 
188.106659 0.057386 
188.974152 1.246372 
189.09079 0.481159 
189.111252 0.08524 
189.12706 0.115422 
190.121887 0.089093 
191.106522 0.40809 
192.101746 0.152265 
192.137466 0.054532 
193.085922 0.045264 
193.101608 0.032747 
193.12265 0.32741 
193.158493 0.106301 
194.11792 0.090695 
195.080612 0.061052 
195.116592 0.249408 
196.097763 0.034258 
196.133026 0.077584 
196.668182 0.115576 
197.096268 0.192865 
197.132339 0.783558 
197.560043 0.041558 
198.136246 0.050737 
198.148178 0.039363 
199.111481 0.540121 
199.130508 0.424976 
199.147934 0.177494 
199.752518 0.056484 
200.106293 0.05408 
200.145645 0.15071 
201.090759 0.331557 
201.127304 0.2979 
201.163651 0.172541 
202.087769 0.047709 
203.1064 0.126922 
203.142868 0.248096 
204.063873 0.087315 
204.10141 0.058344 
205.086197 0.052671 
205.122406 0.199532 
205.158829 0.206298 
206.117188 0.083387 
207.102219 0.04804 
207.116745 0.036474 
207.138184 0.10902 
208.132492 0.142204 
209.095474 0.112121 
210.091522 0.100107 
210.972977 0.028012 
211.112274 0.197157 
211.891998 0.070295 
212.14447 0.05089 
213.091156 0.159944 
213.12735 0.248701 
213.163361 0.101148 
214.416016 3.110998 
214.426865 0.697112 
215.106628 0.034896 
215.142609 0.051081 
217.086365 0.027381 
218.116943 0.07103 
219.101532 0.030666 
219.138382 0.06038 
219.174408 4.434015 
220.133148 0.110152 
220.17778 4.645771 
221.095245 0.071639 
221.117294 0.054562 
221.131226 0.055679 
221.180618 0.07722 
222.112396 0.487343 
222.354843 0.062562 
222.761154 0.037069 
222.837006 0.096141 
223.087128 0.032467 
223.111572 0.07905 
225.090836 0.048996 
225.126938 0.100504 
226.085953 0.027923 
226.108292 0.038291 
227.106384 0.309613 
227.142899 0.035909 
229.122452 0.193707 
230.966843 1.800884 
231.00856 0.088416 
231.054245 0.062867 
231.101425 0.040524 
232.946167 1.196504 
233.03627 0.046743 
233.080902 0.057597 
236.721436 0.039973 
237.091202 0.045774 
237.126389 0.032059 
237.148178 0.034504 
239.106842 0.073601 
239.142441 0.039865 
241.121857 0.08957 
241.157394 0.034023 
241.194824 0.036017 
241.364944 0.064566 
243.101074 0.038837 
243.635208 0.044253 
245.154449 0.048189 
245.710373 0.08475 
246.148392 0.042875 
246.187332 0.090987 
247.168686 0.051615 
248.977295 0.728961 
250.673325 0.078655 
250.956619 0.74892 
251.140533 0.048583 
252.065781 0.061902 
255.173508 0.035474 
259.1315 0.049824 
259.169983 0.202843 
259.206451 0.046373 
265.939575 0.282956 
266.027405 0.420064 
266.999207 0.142322 
268.263245 6.477312 
268.978363 1.179187 
269.117767 0.099303 
270.147766 0.037107 
273.184662 0.084993 
275.199799 0.041007 
275.581329 0.056308 
276.092621 0.090177 
280.103729 0.027719 
280.189331 0.041706 
283.03064 0.054761 
285.00946 3.849604 
287.163483 0.065038 
287.200226 0.074844 
289.155426 0.163331 
290.197632 0.058273 
292.375397 0.071392 
299.061829 1.060339 
299.370605 0.029301 
303.019989 0.187439 
304.227509 0.163605 
305.211121 0.047817 
306.205475 0.342948 
307.165497 0.036418 
308.068115 0.149247 
312.838501 0.134468 
313.012909 0.030834 
315.196167 0.045977 
322.196747 0.050433 
322.237213 0.07891 
324.214966 0.031766 
324.325745 6.771751 
325.176788 0.178112 
325.328705 0.675992 
326.078369 0.087017 
329.19165 0.179841 
332.222717 0.117516 
336.178314 0.173511 
339.16803 1.750454 
340.170532 0.305317 
341.395844 0.085791 
348.40506 0.035496 
350.176086 0.036086 
350.304077 0.031114 
351.215912 0.041288 
353.172546 0.056256 
355.392822 0.082426 
367.175964 0.099015 
367.208893 0.710252 
368.256622 0.037117 
368.424774 100.0 
369.16687 21.572199 
369.221344 0.573635 
369.427826 27.093971 
370.170197 4.502215 
370.275299 0.032323 
370.346313 0.097799 
370.431519 3.153246 
371.096893 0.079827 
371.183044 0.966442 
371.239899 1.413119 
371.275452 0.107421 
385.191528 0.07758 
394.920502 0.089164 
END IONS

