BEGIN IONS
PEPMASS=1460.71
CHARGE=1+
COMPOUNDNAME=BACITRACIN
LIBRARYQUALITY=3
SMILES=N/A
INCHIKEY=CLKOFPXJLQSYAH-NVOBBBONSA-N
INCHI=InChI=1S/C66H103N17O16S/c1-9-35(6)52(69)66-81-48(32-100-66)63(97)76-43(26-34(4)5)59(93)74-42(22-23-50(85)86)58(92)83-53(36(7)10-2)64(98)75-40-20-15-16-25-71-55(89)46(29-49(68)84)78-62(96)47(30-51(87)88)79-61(95)45(28-39-31-70-33-72-39)77-60(94)44(27-38-18-13-12-14-19-38)80-65(99)54(37(8)11-3)82-57(91)41(21-17-24-67)73-56(40)90/h12-14,18-19,31,33-37,40-48,52-54H,9-11,15-17,20-30,32,67,69H2,1-8H3,(H2,68,84)(H,70,72)(H,71,89)(H,73,90)(H,74,93)(H,75,98)(H,76,97)(H,77,94)(H,78,96)(H,79,95)(H,80,99)(H,82,91)(H,83,92)(H,85,86)(H,87,88)/t35?,36?,37?,40-,41+,42+,43-,44+,45-,46-,47+,48?,52?,53-,54-/m0/s1
MSLEVEL=2
SOURCE_INSTRUMENT=N/A-ESI-QFT
FILENAME=library_mgf.mgf
SEQ=*..*
IONMODE=positive
ORGANISM=MONA
NAME=BACITRACIN [M+K]+
PI=MoNA
DATACOLLECTOR=MoNA:VF-NPL-QEHF027776
PUBMED=N/A
SUBMITUSER=mwang87
TAGS=
SPECTRUMID=CCMSLIB00004721357
SCANS=27776
101.107307 0.297256 
102.054985 6.034545 
102.091499 0.056001 
102.812958 0.011768 
103.054306 0.93538 
103.058075 0.187997 
105.069962 0.211709 
106.065201 0.044683 
106.390625 0.010774 
107.004898 0.009804 
107.060486 0.160126 
107.993637 0.009031 
108.044411 0.0441 
108.055656 0.271844 
108.080765 0.226061 
109.039711 0.03367 
109.063515 0.231382 
109.072479 0.009903 
109.076073 0.738184 
110.054665 0.011265 
110.071205 100.0 
110.096054 0.645724 
111.05529 0.517661 
111.068253 0.958736 
111.074547 5.134807 
111.078491 0.08939 
111.091591 2.463993 
111.677635 0.009884 
111.985191 0.009696 
112.075516 1.138306 
112.086937 0.424144 
112.095139 0.045863 
112.112061 0.202455 
113.070915 0.28953 
113.079338 0.015763 
113.090172 0.009626 
113.107323 0.58263 
114.055161 0.01137 
114.091515 0.161707 
114.102592 0.43825 
115.050201 0.039362 
115.054245 0.21739 
115.086609 6.840466 
115.091202 0.076957 
115.500206 0.009987 
116.016457 0.045603 
116.070564 0.089739 
116.089951 0.251495 
117.069832 0.036125 
117.105949 0.010494 
118.064896 0.125571 
119.060425 0.079584 
120.055702 0.822288 
120.080788 10.452119 
121.03965 0.943519 
121.07618 0.244446 
121.084045 0.796764 
122.04747 0.01046 
122.059998 0.081951 
122.071259 1.352026 
122.083885 0.009312 
122.096474 0.113994 
123.055267 1.104317 
123.074364 0.012722 
123.091614 0.544061 
124.039314 0.042512 
124.050514 0.009408 
124.058723 0.009928 
124.07589 0.142465 
124.086906 0.724188 
124.112144 0.326273 
125.017067 0.011615 
125.034683 0.032895 
125.07093 0.494164 
125.107376 0.483777 
126.037704 0.012478 
126.06649 0.011901 
126.091141 0.062321 
126.102577 0.015189 
127.050194 0.171717 
127.086563 0.48014 
127.122932 0.111609 
128.053055 0.013528 
128.070618 0.043023 
128.106461 0.009719 
128.11821 0.052286 
129.011566 0.074629 
129.065659 0.529719 
129.102158 13.119752 
129.995682 0.149686 
130.04982 0.433177 
130.065018 0.710052 
130.086227 0.23708 
130.100311 0.054064 
130.105469 0.843135 
130.62561 0.010528 
131.027359 0.18974 
131.049179 0.062445 
131.117645 0.172544 
132.080658 0.399437 
133.022095 0.010029 
133.06337 0.568419 
133.076202 0.038478 
134.071213 0.164277 
134.096283 0.14878 
134.498062 0.009307 
135.055038 0.012638 
135.091537 0.970693 
135.326904 0.011747 
136.050629 0.287808 
136.075745 1.548954 
136.086929 3.761325 
136.099884 0.020653 
136.112061 0.243516 
137.070953 0.453187 
137.082535 0.122732 
137.090134 0.164228 
137.107239 1.535349 
138.037155 0.022679 
138.055634 0.023997 
138.066193 3.582552 
138.091339 0.453584 
138.102524 0.204137 
138.11087 0.012248 
138.12764 1.24997 
139.050415 0.081977 
139.069672 0.10708 
139.086548 7.582331 
139.092636 0.099925 
139.12294 0.306178 
139.131271 0.050839 
140.052872 0.071115 
140.070648 0.010096 
140.083435 0.011104 
140.089935 0.511475 
140.106964 0.575565 
140.118149 0.23311 
140.143265 0.181867 
141.011765 0.162038 
141.065811 0.05986 
141.102158 1.231184 
142.043442 0.013516 
142.061234 0.105556 
142.068451 0.192397 
142.085892 0.009201 
142.097641 0.086728 
142.105179 0.02919 
143.027176 0.13132 
143.045044 0.750109 
143.081406 0.17495 
143.117874 0.028637 
143.763931 0.008982 
144.08075 0.043244 
146.059937 0.02676 
146.071365 0.119034 
146.096313 0.192776 
146.128754 0.906228 
147.055588 0.013044 
147.091827 0.107093 
147.099304 0.013183 
147.112823 0.026569 
148.050598 0.407545 
148.075562 0.07192 
148.086853 0.463321 
148.099365 0.021369 
148.111984 0.028801 
149.034302 0.010972 
149.070999 0.159983 
149.082397 0.063692 
149.1073 0.327801 
150.066208 0.106284 
150.090622 0.040635 
150.102554 0.171737 
150.127792 0.033136 
151.050278 0.030405 
151.086487 0.472993 
151.123001 0.277003 
152.016357 0.048688 
152.052856 0.094066 
152.081909 0.149873 
152.106964 0.426424 
152.11824 0.277327 
152.131287 0.010367 
152.143356 0.773851 
153.04744 0.01068 
153.066025 0.056783 
153.102188 1.174854 
153.108841 0.014491 
153.138657 0.216447 
153.146469 0.014489 
154.061234 0.075569 
154.068375 0.263445 
154.085739 0.044699 
154.097336 0.015449 
154.105453 0.013147 
154.122498 0.066185 
154.133911 0.332459 
154.158966 0.49389 
155.063828 0.012162 
155.081375 0.122239 
155.092651 2.014771 
155.117737 2.179984 
155.154007 0.035232 
156.065155 0.012451 
156.076599 1.223124 
156.095886 0.042448 
156.102112 0.115715 
156.113098 2.504858 
156.120483 0.134959 
157.060486 0.027147 
157.079834 0.051914 
157.097168 0.292042 
157.116348 0.089879 
157.133316 0.014298 
158.063431 0.016528 
159.021805 0.011252 
159.091797 0.286068 
160.07579 0.010553 
160.086761 0.143569 
161.081909 0.012721 
161.107132 0.108479 
161.97348 0.009927 
162.054382 0.009309 
162.066223 0.461584 
162.102448 3.053358 
162.109375 0.056404 
163.086456 3.672155 
163.098083 0.243351 
163.105499 0.150008 
163.122879 0.628881 
164.045547 0.072542 
164.07048 2.776782 
164.082001 1.639391 
164.089462 0.240923 
164.107269 0.014957 
164.118256 0.834967 
165.07724 2.009092 
165.084732 0.096515 
165.102203 1.468751 
165.113556 0.087739 
165.138596 0.70399 
166.006165 0.050806 
166.061066 7.903179 
166.068985 0.124976 
166.086563 0.155526 
166.097305 0.319105 
166.105011 0.041337 
166.122559 0.351783 
166.133881 0.760121 
166.141129 0.034899 
167.045074 0.147858 
167.057632 0.022719 
167.064331 0.699666 
167.08136 1.009305 
167.089218 0.019329 
167.117813 0.656795 
167.124863 0.019439 
167.154129 0.349256 
168.047546 0.010609 
168.076202 0.013051 
168.101929 0.522548 
168.113129 0.07491 
168.138596 0.010054 
168.149429 0.206787 
168.397858 0.009787 
168.969925 0.012011 
169.006256 0.011474 
169.06012 0.01015 
169.079147 0.264383 
169.096985 0.19361 
169.133484 0.719252 
170.055923 0.010614 
170.063522 0.016064 
170.117462 0.285741 
171.040222 0.010588 
171.094574 0.054609 
172.078903 0.482943 
172.086716 0.031646 
172.097244 0.013524 
172.111954 0.244148 
173.083176 0.015627 
174.066101 0.076004 
174.102829 0.055517 
174.128036 0.012246 
175.086563 0.641662 
175.098175 0.013127 
175.123093 0.037998 
175.308853 0.009763 
176.08194 0.144368 
176.090057 0.010938 
176.118118 1.582844 
177.077438 0.012897 
177.102341 0.072305 
177.121262 0.028865 
177.138474 1.012084 
178.061203 0.011002 
178.097473 0.216127 
178.133835 2.293122 
178.141464 0.102615 
179.063385 0.014297 
179.081558 0.138439 
179.092789 0.361896 
179.117828 1.087518 
179.126694 0.034269 
179.137131 0.128303 
179.154297 0.297681 
180.07666 0.564495 
180.113037 1.394511 
180.121201 0.050671 
180.140625 0.019681 
180.149323 0.607833 
181.043777 0.010966 
181.060822 0.009582 
181.07991 0.019324 
181.08287 0.025604 
181.097198 7.66367 
181.108215 6.807804 
181.115524 0.233662 
181.125183 0.01114 
181.133255 1.589705 
181.169815 0.107847 
182.001007 0.306515 
182.081467 0.187283 
182.09227 0.075282 
182.100555 0.631773 
182.111771 0.433915 
182.12883 0.431194 
182.137222 0.084675 
182.16507 1.412143 
183.087219 0.027219 
183.112793 1.487775 
183.133331 0.019525 
183.14917 2.823142 
183.168365 0.043022 
184.001587 0.011289 
184.042557 0.041648 
184.060379 0.023193 
184.071396 0.077692 
184.097458 0.013394 
184.10788 0.361703 
184.11644 0.050076 
184.152634 0.218156 
184.180756 0.15642 
185.000031 0.049362 
185.055588 1.617033 
185.074097 0.235981 
185.091995 0.210405 
185.107468 0.014455 
185.128616 0.016228 
185.164749 0.012291 
186.05864 0.156521 
186.092133 0.012146 
186.101944 0.011214 
186.12767 0.426946 
186.158997 0.010744 
187.089478 0.613771 
187.131042 0.011186 
188.118164 0.063272 
188.143356 0.642808 
189.077087 0.497646 
189.10463 0.412173 
189.113602 0.491336 
189.138565 0.0261 
190.060928 0.939438 
190.088562 0.01141 
190.097458 0.515086 
190.106873 0.057422 
190.124649 0.008609 
190.133667 0.863839 
191.064301 0.013187 
191.081528 0.764459 
191.092606 2.293323 
191.101898 0.089191 
191.117813 1.392904 
191.127426 0.064833 
191.154297 0.085429 
192.076767 0.294628 
192.086258 0.010569 
192.096191 0.0783 
192.113037 0.457992 
192.121658 0.033434 
192.149323 1.790912 
193.071884 0.260317 
193.097168 0.536478 
193.107635 0.119721 
193.133545 3.410163 
193.143539 0.071503 
193.153214 0.095556 
193.169739 0.011362 
194.074173 0.010181 
194.092361 0.35106 
194.118347 0.023475 
194.128647 0.422324 
194.137268 0.303946 
194.165222 0.377237 
195.040085 0.326643 
195.058975 0.017831 
195.07637 0.070993 
195.091904 0.157805 
195.112793 0.747413 
195.149277 0.515271 
196.043732 0.0368 
196.089966 0.040579 
196.107941 0.209416 
196.144363 1.70481 
196.18074 0.698809 
197.056046 0.021473 
197.074203 1.396812 
197.091431 0.026209 
197.110504 0.067837 
197.128448 2.07869 
197.138657 0.012701 
197.148163 0.084113 
197.164581 0.639903 
197.184311 0.012076 
198.058456 0.804901 
198.077332 0.023837 
198.123596 5.097358 
198.159698 0.012154 
198.98912 0.028629 
199.053696 0.040138 
199.072205 0.036238 
199.089935 6.149093 
199.107529 0.649114 
199.12677 0.465787 
200.037521 0.11485 
200.073547 0.087853 
200.093185 0.60714 
200.143616 0.021191 
200.175735 0.308321 
201.085739 0.237135 
201.123245 0.314123 
202.082245 0.504342 
202.097916 0.01058 
202.133698 0.011873 
203.065277 0.012249 
203.118729 0.010989 
203.129211 0.243661 
203.154175 0.054739 
204.113327 0.18921 
204.149612 0.247593 
205.096924 0.045019 
205.108246 0.0111 
205.13382 0.12275 
205.144287 0.028783 
205.169968 0.0144 
206.092545 0.12249 
206.10347 0.156605 
206.119156 0.011854 
206.128738 0.857318 
206.154129 0.015933 
206.165115 2.652003 
206.996109 0.026545 
207.059204 0.011127 
207.076797 0.036002 
207.086823 1.455108 
207.112518 0.742725 
207.124084 2.137311 
207.149139 0.823447 
207.159637 0.030074 
207.172226 0.423821 
207.980438 0.015362 
208.071701 0.556255 
208.090485 0.042483 
208.09848 0.029658 
208.10791 2.189699 
208.127136 0.111796 
208.144287 1.867994 
208.180847 1.168713 
209.036682 0.024689 
209.074463 0.207313 
209.092361 1.439384 
209.102432 0.085577 
209.111267 0.291468 
209.128372 1.161387 
209.148026 0.109225 
209.164673 0.429647 
209.184708 0.053181 
209.995377 0.01311 
210.031448 0.011382 
210.095581 0.026563 
210.105759 0.01378 
210.123306 0.921317 
210.133896 0.013474 
210.160034 6.614071 
211.053146 0.143323 
211.089355 0.022322 
211.107742 0.432463 
211.126495 0.206266 
211.14418 0.956639 
211.163406 0.743257 
212.011581 0.168822 
212.066635 0.427773 
212.085327 0.206028 
212.118195 7.809758 
212.129791 0.124812 
212.147781 0.012849 
213.050735 0.662781 
213.069031 1.22777 
213.087326 0.025607 
213.121979 1.115538 
213.140442 0.061386 
214.053131 2.777778 
214.072815 0.009108 
214.100342 0.271297 
214.154938 0.397484 
215.010834 0.011492 
215.056442 0.177339 
215.084549 0.204178 
215.119827 0.012529 
215.128098 0.075885 
215.139023 3.414743 
215.151794 0.061454 
215.154922 0.046394 
216.04921 0.015412 
216.088257 0.009282 
216.113632 0.038861 
216.141953 0.156765 
217.072021 0.920474 
217.098465 0.360654 
217.108749 0.511992 
217.13353 0.413271 
217.144409 0.094684 
217.17012 0.0281 
218.05658 0.384844 
218.128662 0.264864 
218.165024 0.262955 
219.086655 0.011345 
219.112549 0.071345 
219.123245 0.035444 
219.14917 0.381933 
219.159927 0.02492 
219.172028 0.015057 
220.107407 0.115958 
220.144241 0.520876 
220.168991 0.01704 
220.180756 4.360238 
221.077621 0.695755 
221.089661 0.029722 
221.111542 0.024233 
221.128387 0.326117 
221.139633 0.282715 
221.164734 0.174905 
221.188431 0.958902 
222.004807 0.04718 
222.10289 0.40415 
222.12355 0.236811 
222.160095 0.263271 
222.196442 2.496222 
223.073502 0.025431 
223.088623 0.012301 
223.107513 0.281705 
223.126968 0.079221 
223.143936 0.037331 
223.15506 0.028981 
223.180603 0.516858 
223.199966 0.241539 
224.085281 0.027398 
224.105042 0.038921 
224.118332 1.862756 
224.138458 0.949677 
224.175125 0.948255 
225.032211 0.011032 
225.069214 1.716992 
225.097946 1.535999 
225.122803 0.889819 
225.13475 0.499059 
225.159744 0.140464 
225.170929 0.462898 
226.072586 0.04813 
226.106964 0.114974 
226.118362 1.938501 
226.137482 0.038173 
226.154572 0.679963 
227.048584 0.009917 
227.065948 0.018508 
227.084747 2.159889 
227.102951 0.094389 
227.12117 0.111329 
227.138931 0.046439 
227.151398 0.062832 
228.043213 0.069675 
228.064468 0.0107 
228.088303 0.154154 
228.134476 0.023309 
228.158661 0.01765 
228.170456 1.574787 
228.182648 0.018533 
229.081284 0.032476 
229.132996 0.106823 
229.155334 0.028636 
229.173828 0.114404 
230.07695 1.056445 
230.128494 0.021871 
231.061447 0.059081 
231.123901 0.167814 
231.149139 0.375769 
231.160858 0.011218 
232.108032 0.087846 
232.143707 0.072533 
232.180618 0.210803 
233.091751 0.137433 
233.128174 0.048089 
233.139862 0.091883 
233.164825 1.255727 
234.098618 1.540486 
234.123444 0.64657 
234.135437 0.011581 
234.159302 1.336331 
234.196533 0.154335 
235.082291 8.643166 
235.106339 0.084538 
235.11821 0.062707 
235.127899 0.042296 
235.143753 0.657763 
235.155502 0.521246 
235.179657 0.047609 
235.191238 0.012472 
236.066818 0.788429 
236.086136 1.006491 
236.102188 0.91133 
236.139023 1.44102 
236.175797 0.637144 
237.031479 0.048905 
237.069199 0.212016 
237.087952 0.326926 
237.098846 0.091276 
237.131668 0.030968 
237.142456 0.39419 
237.159103 0.137964 
237.170807 0.011094 
238.100418 0.050276 
238.119476 0.139671 
238.1371 0.417365 
238.154892 1.495293 
239.04744 0.091592 
239.084717 0.146407 
239.102402 0.015157 
239.128952 0.74924 
239.140366 0.063257 
239.158371 0.065134 
240.061829 0.048662 
240.080063 0.149952 
240.10054 0.011623 
240.112915 1.007629 
240.133133 0.146004 
240.152771 0.842231 
241.046066 0.076416 
241.063599 0.014356 
241.082672 0.011759 
241.117752 0.361924 
241.131668 0.014401 
241.144699 0.280364 
241.156555 0.047561 
242.09462 0.185601 
242.129089 0.075438 
242.149429 0.16241 
242.18602 0.506772 
243.08783 0.056675 
243.133728 3.047968 
243.147568 0.953576 
243.181335 2.306586 
244.130524 0.028821 
244.137909 0.064806 
244.18454 0.153171 
245.077835 0.040541 
245.139694 0.03768 
245.164597 0.031151 
246.098541 0.167806 
246.123489 0.045472 
246.159897 0.18809 
247.057434 0.009293 
247.10437 0.018793 
247.143143 0.102405 
247.155716 0.105601 
247.192062 0.02007 
248.071991 0.010291 
248.087006 0.030002 
248.101929 0.029155 
248.13884 0.174517 
248.175613 2.287923 
249.072357 0.606234 
249.085297 0.012604 
249.122055 0.040933 
249.159256 0.882191 
249.18042 0.153623 
249.207657 0.016952 
250.097794 0.145026 
250.118637 0.313911 
250.13768 0.032414 
250.15387 0.142076 
250.191528 0.54355 
251.078674 0.011422 
251.101868 0.056004 
251.121002 0.254701 
251.137726 0.012414 
251.150421 0.061419 
251.175049 0.168699 
251.187744 0.014502 
252.042709 0.087281 
252.080551 0.01022 
252.109039 5.219647 
252.134232 0.413974 
252.15274 1.040714 
252.170639 1.081094 
253.001755 0.042233 
253.093094 21.020714 
253.11705 0.02613 
253.133621 0.020385 
253.16571 4.466614 
254.058563 0.184355 
254.096115 2.180158 
254.113281 0.772862 
254.135727 0.011659 
254.151337 0.122706 
254.168701 2.672236 
254.18428 0.123094 
255.040756 0.029058 
255.053131 0.056436 
255.098038 0.245439 
255.114594 0.072221 
255.151871 0.07762 
255.171066 0.187978 
256.09903 0.163907 
256.165314 0.217462 
257.139557 7.465779 
258.053131 0.106841 
258.071289 0.045737 
258.096527 0.013402 
258.108643 0.008878 
258.143768 1.038624 
258.158661 0.035695 
259.143738 0.069566 
259.180267 0.014811 
260.102264 0.261266 
260.115326 0.202403 
260.13858 0.050462 
260.172882 0.584988 
261.086365 0.066906 
261.134308 0.029676 
261.158813 0.416185 
261.172424 0.051159 
262.093292 0.552203 
262.118073 0.027546 
262.154388 0.590751 
262.191101 0.099148 
263.077423 2.722829 
263.102051 0.013822 
263.121063 0.045279 
263.136749 0.05612 
263.150665 0.301783 
263.173462 0.058119 
263.18692 0.022532 
264.042969 0.145483 
264.080658 0.279662 
264.098328 0.02924 
264.116516 0.260212 
264.134064 0.026624 
264.15387 0.111098 
264.170471 0.45435 
265.119934 0.013678 
265.136719 1.420024 
266.080963 0.027192 
266.096741 0.024974 
266.116241 0.009252 
266.133453 0.059217 
266.150208 0.237644 
266.167694 0.033616 
266.186005 0.513705 
267.039917 0.011803 
267.124481 3.992284 
267.151489 0.360582 
267.18222 0.014434 
268.108002 9.174036 
268.126801 0.791159 
268.147552 0.565485 
268.162781 0.015249 
268.201996 0.02637 
269.111847 1.63183 
269.139404 0.395193 
269.197021 0.196409 
270.053772 0.072058 
270.073883 0.012606 
270.089844 0.031956 
270.119446 1.513608 
270.143219 0.085101 
270.158508 0.066182 
270.180847 0.011578 
271.104218 0.190635 
271.123688 0.040492 
271.14209 1.941365 
271.176178 0.014683 
272.029633 0.013443 
272.105286 0.061103 
272.12439 0.097046 
272.146637 0.156501 
273.13446 0.374811 
274.067322 0.06787 
274.153412 0.012085 
274.16629 0.18669 
274.191467 0.057163 
275.150421 0.061648 
275.187408 0.194862 
275.221985 0.013488 
276.132263 0.012064 
276.145844 0.02922 
276.170288 0.544248 
276.207153 0.071844 
277.092926 0.106193 
277.113708 0.00927 
277.129517 0.432851 
277.153748 0.133826 
277.166565 0.013388 
277.20224 0.084303 
278.113037 2.48999 
278.130096 0.48662 
278.149841 0.134451 
278.18634 0.369765 
279.018097 0.02496 
279.054169 0.09592 
279.080811 0.024505 
279.097229 0.769467 
279.116119 0.465389 
279.145416 0.072313 
279.18219 0.318694 
279.217255 0.028318 
280.037872 0.055674 
280.074005 0.231209 
280.10379 0.577072 
280.130035 0.094213 
280.147369 0.847722 
280.165436 0.674119 
280.181061 0.044833 
281.088379 2.773374 
281.131683 8.196948 
281.180511 0.010984 
282.053589 0.031966 
282.074738 0.064942 
282.091095 0.418704 
282.108643 0.196839 
282.135498 1.091197 
282.163513 2.088412 
282.180573 0.198213 
283.111023 0.050139 
283.127441 0.028535 
283.146942 0.404067 
283.166656 0.116795 
283.201508 0.043877 
284.124268 0.037525 
284.15036 0.537553 
284.178467 0.277157 
285.134308 19.760578 
285.16156 0.987283 
286.064575 0.012805 
286.092987 0.028812 
286.138397 3.304804 
286.166077 0.10915 
287.139893 0.109927 
287.187256 0.018365 
288.109009 0.426065 
288.133331 0.077898 
288.170105 0.091681 
289.092834 0.102307 
289.153076 0.026209 
289.166107 0.012244 
289.201477 0.030797 
290.089783 0.059439 
290.131317 0.014565 
290.161774 0.361457 
290.186066 0.082159 
291.145325 0.029218 
291.181152 0.08084 
291.217926 0.083778 
292.075134 0.013111 
292.147644 1.015446 
292.164734 0.086197 
292.20166 0.226035 
293.139618 0.781512 
293.183563 0.010681 
293.196655 0.01078 
293.232361 0.011272 
294.14444 0.602978 
294.163025 0.460955 
294.181183 0.453182 
294.196838 0.258802 
294.216797 0.121135 
295.087616 0.025192 
295.118988 1.63999 
295.140198 2.463299 
295.178589 0.124614 
296.069336 0.066082 
296.106903 0.077868 
296.123688 2.773729 
296.142517 0.559869 
296.160583 0.011398 
296.178436 0.027557 
296.19632 0.098241 
297.064545 0.144113 
297.101654 0.721776 
297.127045 0.507817 
297.144073 0.234696 
297.194611 0.106925 
298.048889 0.25582 
298.084869 0.235332 
298.103973 0.04407 
298.140564 0.18485 
298.15799 0.602574 
299.102173 0.012264 
299.118317 0.014014 
299.13913 0.202912 
299.175873 0.013738 
300.063232 0.063312 
300.100128 0.118622 
300.119293 0.084418 
300.171265 0.045427 
301.12793 0.01125 
301.156372 0.011567 
301.201752 0.017223 
302.113586 0.027119 
302.161499 0.292816 
303.118835 0.01678 
303.145081 0.112594 
303.181152 0.037646 
303.217926 0.093278 
304.103912 2.905847 
304.14328 0.04603 
304.164948 0.0992 
304.186829 0.025903 
304.201447 0.066319 
305.070526 0.012095 
305.08905 0.042005 
305.106903 0.348407 
305.124634 0.121306 
305.161163 0.926162 
305.178009 0.01467 
305.197601 0.088778 
306.02951 0.011091 
306.121216 0.722018 
306.143555 0.131367 
306.163116 0.179445 
307.045135 0.013199 
307.085785 0.139542 
307.122253 0.0125 
307.140625 0.024478 
307.176117 0.133309 
307.193665 0.011872 
307.213135 0.013913 
308.123657 0.075521 
308.142395 0.292593 
308.160583 0.098234 
308.178741 0.154567 
308.196716 0.093496 
309.126129 1.247909 
309.174133 0.568117 
310.084656 0.012529 
310.103424 0.025394 
310.128265 0.031128 
310.132751 0.029806 
310.139435 0.032572 
310.157166 0.87406 
310.212067 0.169033 
311.05896 0.592952 
311.139801 0.036994 
311.170441 0.027808 
311.190216 0.011761 
312.061707 0.039316 
312.154816 0.568668 
312.173645 0.300947 
312.205872 0.178452 
313.056854 0.018706 
313.074646 0.241193 
313.129303 0.738261 
313.150055 3.766991 
313.19046 0.762118 
314.05838 0.151701 
314.079102 0.170242 
314.134186 0.502343 
314.153778 0.510238 
314.193268 0.098035 
315.075256 0.037973 
315.140106 0.013518 
315.183075 0.010721 
316.131866 0.07653 
316.165009 0.251142 
317.196411 0.02977 
318.156525 0.120303 
318.179657 0.050024 
319.175934 0.077881 
319.212677 0.210819 
319.248962 0.099605 
320.124237 0.03372 
320.143341 0.017287 
320.178497 0.557766 
320.196411 0.030286 
320.245911 0.035709 
321.042816 0.087362 
321.130859 0.415233 
321.153748 0.085838 
321.171783 0.049471 
321.191528 0.192586 
321.227814 0.173906 
322.025421 0.012704 
322.114471 1.221478 
322.136719 0.201758 
322.157318 0.070988 
322.18924 0.495635 
323.079956 0.427168 
323.116547 0.12096 
323.135468 0.810635 
323.170685 1.058029 
324.063873 0.015666 
324.118958 0.417869 
324.137665 0.267281 
324.17392 0.182498 
324.237579 0.028898 
324.384521 0.011327 
325.096741 0.033199 
325.118896 0.12433 
325.150543 0.040207 
325.168793 0.032391 
325.185272 0.014846 
325.203217 0.150214 
326.080078 0.035795 
326.133636 0.015935 
326.153015 0.232893 
326.186584 0.268617 
327.132599 0.01249 
327.167358 0.057189 
328.134216 0.042514 
328.176025 0.446155 
329.118561 0.01339 
329.17984 0.035311 
330.148132 0.238769 
330.217346 0.033474 
331.114655 0.371374 
331.149323 0.017055 
331.176514 0.013942 
331.212921 0.060673 
331.248657 0.064471 
332.098724 1.323204 
332.119659 0.033574 
333.102051 0.140918 
333.120728 0.012027 
333.155304 0.221046 
333.1922 0.042795 
333.228424 0.040996 
333.264282 0.16437 
334.19455 0.094231 
334.222839 0.046328 
335.039551 0.136579 
335.086823 0.188765 
335.137421 0.063004 
335.187531 0.835011 
335.206848 0.076047 
336.086517 0.037751 
336.145203 0.12218 
336.190247 0.469799 
336.210175 0.425912 
337.037048 0.02397 
337.084656 0.013414 
337.129547 0.315201 
337.150238 0.046349 
337.16983 0.015828 
337.194672 0.347606 
337.220367 0.01197 
338.081787 0.061879 
338.135681 0.013902 
338.158478 0.4267 
338.205078 0.111912 
338.254822 0.393567 
339.05246 0.146427 
339.141205 1.043301 
339.164368 0.153961 
339.214142 0.269802 
339.237579 0.029579 
340.099335 0.202449 
340.144409 0.034105 
340.164612 0.118446 
340.199921 1.735939 
341.145599 0.876977 
341.184784 0.484571 
341.205109 0.169073 
342.092957 0.046119 
342.15036 0.070371 
342.189423 0.042056 
342.251282 0.014016 
344.126434 0.029876 
344.198425 0.010671 
346.149353 0.091961 
347.109283 0.01208 
347.152863 0.012878 
347.171783 0.014224 
347.207001 0.075644 
347.244049 0.313944 
348.095276 0.026056 
348.139648 0.015082 
348.173828 0.01469 
348.209656 0.259239 
348.239502 0.41028 
349.055542 0.012795 
349.125153 8.125539 
349.187439 0.119637 
349.222382 0.018164 
350.108704 4.130535 
350.128845 0.848666 
350.153381 0.018161 
350.183655 0.254309 
350.22644 0.591313 
351.110657 0.806541 
351.13089 0.193556 
351.166229 0.06509 
351.226593 0.021692 
352.110565 0.108165 
352.212402 0.109767 
352.235779 0.02892 
353.062225 0.064796 
353.217712 0.076006 
354.1091 0.01459 
354.154633 0.114986 
354.20105 0.029555 
354.226532 0.464745 
355.140045 0.214493 
355.182251 0.009437 
355.233612 0.024494 
356.083649 0.015574 
356.12674 0.699919 
356.168915 0.044967 
356.216278 0.012547 
356.265625 0.155824 
357.130249 0.024423 
357.188507 0.0133 
357.225281 0.679877 
357.26593 0.015289 
358.17218 0.788056 
358.209839 0.297625 
358.230927 0.010552 
359.080353 0.013411 
359.109558 0.02605 
359.153107 0.013865 
359.176178 0.040828 
360.093567 0.691025 
360.134125 0.21005 
360.273346 0.01317 
361.09613 0.06227 
361.118774 0.126754 
361.169128 0.025911 
361.259308 0.331404 
362.119965 0.013545 
362.224304 0.011913 
363.180054 0.210602 
363.203003 0.313018 
364.139557 0.400659 
364.184357 0.099139 
365.124054 1.486408 
365.234833 0.015882 
366.127441 0.172825 
366.192444 0.251489 
366.249634 0.355104 
367.135986 4.343151 
367.19632 0.115711 
367.252472 0.018993 
368.117584 0.058433 
368.13913 0.533375 
368.193359 0.441386 
368.235748 0.228081 
369.140137 0.491157 
369.19574 0.036831 
370.149261 0.204948 
370.223846 0.03296 
371.181854 0.327307 
372.165558 0.031424 
373.222961 0.017127 
375.199615 0.076865 
375.239014 0.143728 
376.106934 0.602408 
376.201965 0.026185 
376.236084 0.111668 
377.050964 0.056864 
377.090851 0.694938 
377.119293 0.973908 
377.147461 0.048869 
377.182098 0.013553 
377.236145 0.018056 
378.103271 1.340922 
378.145355 0.299406 
378.199524 0.011495 
378.247131 0.147106 
379.105164 0.158877 
379.129608 0.049659 
379.206543 0.014338 
380.134125 0.040136 
380.20755 1.420084 
381.13916 0.028884 
381.212616 0.663107 
382.096039 0.032069 
382.150757 2.760483 
382.213928 0.026018 
383.131348 0.075879 
383.155823 0.550874 
384.136322 0.013949 
384.160889 0.042464 
384.201691 0.382124 
385.146759 0.016132 
386.166351 0.311891 
387.176758 0.665856 
388.160828 0.437442 
389.163757 0.037416 
389.191162 0.088235 
389.218628 0.056031 
390.197327 0.013743 
390.250244 0.052893 
391.171722 0.060411 
391.197144 0.044114 
391.234985 0.014633 
392.203339 0.12045 
393.11911 0.017154 
393.181671 0.012032 
393.209869 0.019361 
394.117584 0.163685 
394.177521 0.013503 
394.209991 0.133701 
395.131409 0.95012 
395.158752 0.0142 
395.238159 0.255997 
396.239502 0.01511 
397.159943 0.044772 
397.18869 0.014542 
398.143799 0.013283 
398.218445 1.354627 
399.176514 0.445639 
399.221466 0.277109 
400.161194 7.661457 
401.163971 1.61888 
401.222168 0.029858 
402.167877 0.080146 
403.245911 0.013482 
404.160645 0.030073 
404.228943 0.014067 
405.187439 1.611614 
405.213531 0.145813 
406.190704 0.30639 
406.219025 0.013485 
406.245087 0.012 
407.138763 0.062125 
407.228607 0.014867 
408.166962 0.064445 
408.200714 0.149009 
408.257263 0.012558 
409.163055 0.043749 
410.146637 1.064799 
411.149078 0.15091 
411.204559 0.01279 
412.218994 0.062574 
413.18335 0.012645 
414.186157 0.127253 
415.141907 0.062804 
415.171753 1.666976 
415.199219 0.139986 
416.174561 0.260557 
416.202118 0.016877 
417.186737 0.342352 
418.087494 0.087157 
418.176605 0.014444 
418.243713 0.19269 
419.166992 0.119338 
419.200592 0.090389 
420.189178 0.114996 
421.187378 0.011678 
422.204407 0.01785 
423.207062 0.024643 
424.141998 0.395079 
425.148926 0.069805 
425.186005 0.030811 
426.142578 0.29832 
426.211823 0.057341 
426.316895 0.018866 
427.140839 0.281745 
427.172089 0.202927 
427.214661 0.013862 
428.156281 0.609907 
429.158447 0.206806 
432.197968 0.535228 
432.227661 0.041568 
433.182465 3.941073 
434.148407 0.169205 
434.185089 0.778979 
435.195496 0.106131 
435.27066 0.142529 
436.097076 0.031201 
436.220917 0.031658 
436.254852 0.103253 
437.12384 0.019216 
437.215515 0.453949 
438.168427 0.10835 
438.201385 0.046263 
439.201569 0.069718 
440.274841 0.012609 
440.305145 0.015593 
441.179596 0.015309 
441.218536 0.018399 
442.181427 0.096401 
443.166748 0.031992 
444.164459 0.014248 
445.181366 0.024446 
445.211517 0.012706 
446.17981 0.032527 
447.113281 0.01228 
447.198547 0.084251 
447.346405 0.131356 
449.184296 0.018585 
449.254517 0.013199 
450.208282 1.099091 
450.269653 0.013085 
451.170959 0.307027 
451.209747 0.210706 
451.337402 0.012712 
452.214996 0.013825 
452.298248 0.236288 
453.190369 0.329258 
453.28186 0.187444 
454.232635 0.034059 
455.13501 0.014598 
455.224579 0.769041 
456.190735 0.015791 
456.228302 0.054611 
458.146301 0.014235 
460.192291 0.528725 
461.149597 0.016339 
461.321747 0.013748 
462.141785 0.130753 
462.206146 0.031973 
463.195648 0.032344 
463.237488 0.0576 
465.211395 0.133762 
465.253235 0.013493 
466.211243 0.058363 
467.273956 0.015354 
468.22406 0.012614 
469.146271 0.027091 
469.183044 1.054261 
470.181915 0.129471 
470.306183 0.015254 
471.132721 0.013542 
472.252197 0.181062 
474.105713 0.013305 
474.203369 0.061933 
475.263947 0.059771 
476.156372 0.015805 
476.285767 0.08294 
477.218933 0.289703 
477.255829 0.015163 
478.205109 0.388658 
479.167297 0.663769 
479.204193 0.04055 
479.266998 0.046431 
480.149658 0.023625 
480.168823 0.011668 
480.218201 0.014314 
482.239105 0.009819 
486.140839 0.009691 
486.208588 0.380166 
486.273224 0.014459 
487.206573 0.044747 
488.186249 0.222617 
489.187164 0.032443 
490.170044 0.013866 
490.23996 0.012656 
490.301697 0.040629 
491.228851 0.113951 
492.185822 0.027339 
492.290009 0.296724 
493.292511 0.016139 
494.246155 0.025636 
494.289154 0.093654 
495.232117 0.372901 
496.192657 0.315481 
496.231384 0.039472 
497.177399 0.821097 
498.179352 0.089909 
499.193115 0.015298 
499.229584 0.206038 
501.251251 0.014861 
504.151154 0.036608 
505.211029 0.265847 
505.246704 0.037107 
506.199371 0.376037 
506.283783 0.420209 
507.161591 0.078419 
507.201538 0.012903 
507.290802 0.068881 
509.202789 0.01132 
512.257507 0.05432 
512.296936 0.086352 
513.245483 0.880243 
514.204773 0.968532 
514.245544 0.193983 
515.205078 0.166613 
522.275818 0.014525 
523.226807 0.53027 
524.1875 0.141311 
524.228027 0.010024 
524.288757 0.021407 
525.172241 0.082561 
529.212463 0.013362 
530.420898 0.012534 
536.290161 0.014489 
539.230774 0.015306 
542.19873 0.012548 
544.229431 0.018228 
550.300049 0.015822 
551.302185 0.093209 
552.254822 0.22408 
555.266357 0.01531 
556.259644 0.048217 
556.410156 0.203186 
557.270081 0.010747 
557.41626 0.016174 
562.239624 0.366035 
563.245117 0.045147 
563.301208 0.009974 
564.292664 0.010936 
565.250854 0.014245 
565.381348 0.010597 
567.269714 0.010499 
567.322266 0.018901 
568.253723 0.02445 
573.279358 0.012879 
574.271851 0.157316 
577.321411 0.078803 
577.379822 0.013808 
578.321533 0.01284 
579.266785 0.040236 
580.250977 0.574524 
581.253906 0.025001 
582.265442 0.206704 
583.264038 0.024003 
584.253784 0.026709 
589.251709 0.012462 
591.296326 0.073544 
592.28656 0.208502 
592.344116 0.01145 
593.288269 0.011244 
602.263 0.139529 
607.265015 0.029305 
608.375977 0.01316 
609.313599 0.072646 
610.259827 0.058024 
611.259338 0.031711 
617.244141 0.014701 
618.253418 0.013288 
619.291504 0.01235 
620.27417 0.027543 
625.271851 0.058861 
627.287354 0.016308 
627.329468 0.012862 
634.382202 0.015069 
635.25769 0.012647 
642.303223 0.012117 
650.375488 0.011939 
653.270752 0.024653 
696.347961 0.014715 
710.426514 0.013496 
710.787231 0.013852 
710.865051 0.018958 
710.949097 0.015907 
711.207886 0.041196 
718.325745 0.011021 
720.346619 0.021092 
721.336975 0.028325 
724.336853 0.032871 
724.445679 0.091641 
725.45282 0.013715 
730.253174 0.01118 
734.413513 0.017283 
735.358887 0.010957 
744.404114 0.012355 
745.45282 0.012985 
747.4599 0.068256 
748.341187 0.011117 
748.416931 0.012491 
749.420959 0.012622 
757.447876 0.011287 
771.443909 0.013434 
787.360901 0.012547 
789.618652 0.010306 
823.241394 0.009049 
835.452759 0.010425 
843.673523 0.011382 
844.479614 0.016612 
846.418335 0.022888 
849.349304 0.010556 
852.438843 0.010667 
859.48999 0.011977 
861.503479 0.129263 
862.508789 0.084464 
869.43158 0.010696 
875.502441 0.012936 
890.496643 0.014133 
891.429932 0.013876 
897.486328 0.010718 
932.524963 0.018991 
935.458374 0.015931 
947.51239 0.011265 
996.720398 0.008913 
1004.523499 0.086817 
1005.523254 0.014203 
1058.558228 0.014388 
1087.589111 0.012012 
1126.708374 0.011547 
1142.995972 0.009821 
1240.621826 0.01159 
1287.397949 0.011483 
1506.335205 0.011454 
END IONS

