BEGIN IONS
PEPMASS=359.089
CHARGE=1+
COMPOUNDNAME=Mycophenolic Acid
LIBRARYQUALITY=3
SMILES=N/A
INCHIKEY=HPNSFSBZBAHARI-RUDMXATFSA-N
INCHI=InChI=1S/C17H20O6/c1-9(5-7-13(18)19)4-6-11-15(20)14-12(8-23-17(14)21)10(2)16(11)22-3/h4,20H,5-8H2,1-3H3,(H,18,19)/b9-4+
MSLEVEL=2
SOURCE_INSTRUMENT=N/A-ESI-QFT
FILENAME=library_mgf.mgf
SEQ=*..*
IONMODE=positive
ORGANISM=MONA
NAME=Mycophenolic Acid [M+K]+
PI=MoNA
DATACOLLECTOR=MoNA:VF-NPL-QEHF004800
PUBMED=N/A
SUBMITUSER=mwang87
TAGS=
SPECTRUMID=CCMSLIB00004695863
SCANS=4800
50.030975 3.08629 
50.322914 5.100424 
50.439167 6.057918 
50.601604 2.251544 
50.780659 1.346442 
51.110687 5.313154 
51.431957 9.009309 
51.992554 1.909893 
52.018719 6.121622 
52.050194 1.288477 
52.140678 6.405514 
52.414616 9.544573 
52.896652 3.076417 
53.146042 2.992526 
53.185394 3.785295 
55.264503 3.063786 
55.928574 4.308886 
56.378914 1.20391 
56.517349 8.531503 
56.965637 28.905464 
57.070728 1.248301 
57.240906 10.696525 
57.379791 3.317427 
57.726112 3.454079 
58.066002 1.785722 
58.378677 6.864828 
59.645966 7.376869 
59.814671 9.121701 
60.070114 10.026402 
60.092155 10.904231 
60.492889 4.483661 
60.721096 9.438107 
60.87088 8.789997 
61.349312 10.387462 
61.455532 5.499718 
62.005222 9.776523 
62.768978 9.055651 
63.48859 6.335231 
63.700562 1.399835 
63.735882 5.826176 
63.76165 1.230938 
64.200714 7.480441 
64.48011 11.514553 
64.689156 6.123852 
65.188293 6.411031 
65.199059 1.92703 
65.49868 10.313899 
65.969864 11.661787 
66.257912 1.239669 
68.075966 9.843597 
68.22126 10.628426 
69.506393 10.520205 
70.065994 2.521556 
70.266502 9.066553 
70.395111 8.791286 
72.164268 9.103515 
72.65905 8.319639 
73.099602 7.229182 
73.44194 4.220668 
74.347816 2.169159 
74.493294 9.159082 
76.641609 8.64198 
77.055771 4.696986 
77.538834 10.846933 
78.20105 6.125283 
78.441238 1.210662 
78.597244 4.678993 
79.045898 3.374883 
79.778465 9.346403 
79.904526 1.309711 
81.399277 10.903087 
81.424057 10.505671 
81.45607 7.820151 
81.585297 1.240445 
81.849915 3.78089 
82.380676 6.631946 
82.405739 9.597034 
83.589882 1.331926 
83.747551 10.919955 
83.988899 1.47182 
84.876961 10.165169 
85.782753 6.770932 
86.005333 2.139564 
86.164131 6.817118 
86.502899 13.283315 
87.00705 5.433449 
87.155945 8.432224 
87.524475 5.369096 
87.676407 1.319984 
87.858665 6.030732 
88.63176 1.129623 
88.834976 2.115576 
89.177818 3.617082 
89.575584 4.953703 
90.932701 3.314854 
91.054909 20.584929 
91.9179 3.575927 
92.727448 9.576621 
94.8414 1.287547 
96.601631 9.618946 
96.695236 4.85411 
97.12989 1.433572 
97.170494 5.532118 
97.73304 2.110906 
98.292114 11.117325 
99.76754 1.493781 
99.85981 6.403888 
101.277824 3.007328 
101.741913 4.946814 
101.764908 6.554562 
101.877975 10.001522 
102.897194 7.104387 
103.355835 4.963896 
103.448593 4.413117 
103.517006 11.099575 
104.001991 6.808125 
104.336609 10.942991 
105.419624 1.190898 
105.956329 12.656551 
106.005516 6.281226 
106.441879 2.334922 
108.601395 6.359731 
110.991081 5.144158 
111.49649 2.308718 
111.589912 1.346605 
113.743271 9.084559 
113.945381 10.033948 
114.498207 1.652551 
115.165276 1.414612 
116.237076 1.253306 
116.45536 3.765233 
117.463531 11.916141 
119.363052 1.367662 
119.517143 11.398792 
120.24865 9.185467 
123.324745 1.428011 
125.629448 6.394146 
128.799179 8.406558 
129.308517 1.259803 
129.974045 10.747138 
131.07193 4.228253 
134.444687 10.614453 
135.815765 7.701608 
135.992645 8.02012 
136.659302 10.972058 
139.384232 6.578584 
141.820496 6.732816 
142.575378 7.64085 
142.992264 7.423921 
144.362289 7.441872 
145.731094 4.299891 
148.820938 9.58756 
149.045563 10.942029 
149.966705 10.312599 
150.161316 2.398831 
151.127502 11.405107 
151.67511 10.897122 
152.986832 3.998048 
158.885468 2.010062 
159.248108 10.013855 
159.597122 11.333072 
160.150604 3.57611 
160.346786 10.355882 
161.570404 9.742112 
164.135574 1.396447 
167.118057 8.414794 
168.109421 4.576539 
168.117523 4.626316 
169.830124 1.66903 
169.889313 12.138807 
170.709259 1.979209 
175.042404 11.029404 
177.338455 1.776975 
177.971054 1.32815 
178.423035 6.79195 
180.888351 9.722088 
181.63942 9.57556 
181.731537 10.24567 
183.835281 13.490892 
184.373322 9.899012 
189.022995 1.67941 
189.04335 6.552723 
189.118057 5.101437 
189.389236 1.37562 
190.028214 6.383323 
194.795349 8.458395 
195.159698 9.145888 
196.695892 4.389785 
198.89772 1.406802 
200.391327 10.618216 
200.488663 5.978331 
202.40123 1.557454 
207.588791 4.304986 
210.884109 8.30281 
211.421326 1.456048 
213.712265 1.390137 
215.280426 2.525076 
217.160599 4.392248 
217.84024 10.913342 
219.992401 2.061224 
220.003159 11.657964 
220.018127 100.0 
220.030167 46.491306 
222.89856 1.20425 
223.825226 4.556478 
225.439041 8.348015 
230.282898 4.59209 
232.980316 1.383439 
233.11998 1.315567 
237.573349 1.750196 
240.532791 9.633987 
240.909103 9.485638 
242.798996 1.493298 
244.484772 10.585241 
253.753098 4.307781 
254.076447 1.496472 
254.370483 1.259972 
259.899811 3.679043 
266.105103 1.349101 
266.309082 6.643259 
267.017914 4.6997 
267.625244 3.988346 
268.614655 2.192696 
269.032745 3.327035 
271.020386 4.059731 
272.879333 4.161026 
274.312469 4.452461 
275.787384 5.539122 
275.854065 1.345902 
278.580475 4.147256 
279.017212 1.454841 
281.03186 1.80656 
285.428986 2.083333 
286.030823 12.761559 
286.41568 7.357621 
287.519562 9.882526 
287.920288 6.68305 
289.926361 11.920823 
292.535553 12.287113 
293.663177 9.905943 
304.436005 10.896705 
305.285706 4.240511 
307.419403 11.030473 
308.465881 2.618371 
312.348236 1.36162 
312.839172 12.137081 
317.588257 1.507217 
321.969116 3.795785 
322.508881 11.310678 
323.638092 3.919594 
326.454681 4.435543 
327.825592 4.242011 
331.043396 1.33514 
335.198914 11.412507 
352.323029 7.212431 
352.586365 6.229712 
353.040741 1.273796 
354.199921 11.062617 
355.210205 11.869494 
357.691406 1.434788 
359.803833 6.698817 
365.728638 4.555998 
370.65274 5.956237 
375.003937 10.590838 
377.311218 11.13967 
377.815918 1.517205 
382.668304 3.443762 
383.328033 10.167647 
END IONS

