BEGIN IONS
PEPMASS=245.096
CHARGE=1+
COMPOUNDNAME=Massbank:FIO00016 Biotin
LIBRARYQUALITY=3
SMILES=OC(=O)CCCC[C@H](S1)[C@@]([H])(N2)[C@@]([H])(NC(=O)2)C1
INCHIKEY=YBJHBAHKTGYVGT-ZKWXMUAHSA-N
INCHI=1S/C10H16N2O3S/c13-8(14)4-2-1-3-7-9-6(5-16-7)11-10(15)12-9/h6-7,9H,1-5H2,(H,13,14)(H2,11,12,15)/t6-,7-,9-/m0/s1
MSLEVEL=2
SOURCE_INSTRUMENT=ESI-LC-ESI-QTOF
FILENAME=Massbank_ESI_positive_8_1_2014_peaks.mgf
SEQ=*..*
IONMODE=Positive
ORGANISM=MASSBANK
NAME=Massbank:FIO00016 Biotin [M+H]+
PI=Putative Massbank Match
DATACOLLECTOR=Massbank
PUBMED=N/A
SUBMITUSER=mwang87
TAGS=
SPECTRUMID=CCMSLIB00000213618
SCANS=6388
227.0846 61287.0 
228.0875 5941.0 
229.0813 2228.0 
245.0953 102968.0 
246.0981 10312.0 
247.092 4256.0 
END IONS

