BEGIN IONS
PEPMASS=338.16
CHARGE=1+
COMPOUNDNAME=MYCOPHENOLIC ACID
LIBRARYQUALITY=3
SMILES=N/A
INCHIKEY=HPNSFSBZBAHARI-RUDMXATFSA-N
INCHI=InChI=1S/C17H20O6/c1-9(5-7-13(18)19)4-6-11-15(20)14-12(8-23-17(14)21)10(2)16(11)22-3/h4,20H,5-8H2,1-3H3,(H,18,19)/b9-4+
MSLEVEL=2
SOURCE_INSTRUMENT=N/A-ESI-QFT
FILENAME=library_mgf.mgf
SEQ=*..*
IONMODE=positive
ORGANISM=MONA
NAME=MYCOPHENOLIC ACID [M+NH4]+
PI=MoNA
DATACOLLECTOR=MoNA:VF-NPL-QEHF011304
PUBMED=N/A
SUBMITUSER=mwang87
TAGS=
SPECTRUMID=CCMSLIB00004702367
SCANS=11304
50.059624 0.084686 
50.714138 0.076733 
50.851658 0.097675 
51.040562 0.085354 
51.465595 0.059938 
51.504395 0.053164 
52.943531 0.07992 
52.998562 0.078866 
53.674767 0.066897 
53.696758 0.112888 
53.789639 0.075124 
54.001961 0.11244 
54.111893 0.108666 
54.948463 0.070342 
55.018639 1.350886 
55.22427 0.095547 
55.287601 0.086768 
55.296253 0.120774 
55.298817 0.086198 
55.59977 0.087863 
57.175938 0.089258 
57.22953 0.073709 
57.420155 0.073969 
57.44825 0.103414 
57.505737 0.094571 
57.695396 0.068176 
57.741116 0.070307 
58.008877 0.078612 
58.131783 0.081485 
58.190819 0.08287 
59.093182 0.09168 
59.152107 0.072386 
59.538288 0.089129 
59.711952 0.085961 
60.124809 0.089848 
60.389591 0.079274 
60.916859 0.07128 
61.613548 0.067955 
62.159286 0.11938 
62.371613 0.08633 
62.514736 0.112368 
62.532238 0.066805 
62.781746 0.067313 
62.969944 0.079366 
63.101337 0.108773 
63.511333 0.062688 
63.529839 0.091579 
63.659126 0.072681 
63.791374 0.059922 
63.926632 0.101997 
64.00975 0.083965 
64.110283 0.108993 
64.976265 0.098245 
66.208855 0.115364 
67.049049 0.116035 
67.054939 0.098254 
67.694305 0.109368 
67.817574 0.113915 
67.833733 0.085234 
67.961441 0.078504 
67.967674 0.056761 
68.736885 0.085803 
69.259987 0.083569 
70.053024 0.087766 
70.110153 0.081072 
70.307877 0.078474 
71.343834 0.116793 
71.609474 0.111535 
71.61174 0.112009 
71.919891 0.086147 
72.801331 0.089225 
72.848152 0.129738 
72.874413 0.091182 
74.258186 0.07134 
74.967606 0.067926 
75.341942 0.105559 
77.041512 0.08927 
77.645996 0.084377 
77.877136 0.093081 
78.797981 0.088136 
78.840195 0.072003 
79.005058 0.086878 
79.05484 1.788497 
80.317909 0.111116 
80.96199 0.079059 
81.070457 3.902965 
81.159515 0.064306 
83.744843 0.091342 
84.589981 0.086726 
84.908424 0.08874 
85.318146 0.081441 
85.429993 0.068635 
85.467728 0.124899 
85.91803 0.084241 
86.019417 0.100238 
86.303467 0.093352 
86.636787 0.102981 
89.028526 0.085132 
89.09977 0.100043 
90.095215 0.092298 
90.910316 0.095292 
91.05471 21.798683 
91.191452 0.087775 
91.645729 0.112182 
92.058052 5.264857 
92.6698 0.083969 
93.696793 0.102113 
94.720261 0.080561 
95.049568 0.724148 
96.132187 0.087042 
97.155815 0.105709 
97.301079 0.072363 
99.017776 0.069867 
100.689713 0.102173 
100.758041 0.091765 
101.041359 0.097875 
102.417717 0.080518 
103.054581 20.128189 
103.37944 0.111169 
103.500496 0.083536 
104.057945 6.092668 
104.615166 0.062449 
105.792412 0.104257 
106.601501 0.120085 
107.049171 0.113676 
107.960251 0.137969 
109.919907 0.101346 
111.027351 0.096228 
112.907692 0.085143 
113.268639 0.068844 
114.182846 0.109768 
114.203262 0.127496 
115.86367 0.085113 
115.954353 0.083465 
116.186775 0.094738 
116.544395 0.104369 
117.745949 0.107047 
120.708458 0.124062 
120.895325 0.095226 
121.02681 0.06658 
121.065147 0.275851 
121.33252 0.080362 
122.806595 0.118534 
124.078629 0.085373 
124.508705 0.073768 
124.678299 0.060197 
124.702072 0.079029 
124.733551 0.07551 
124.783936 0.072748 
125.035522 0.085846 
125.640976 0.122355 
125.68412 0.104674 
126.019325 0.07321 
126.346634 0.093288 
126.456444 0.07442 
128.993774 0.094722 
129.60643 0.092311 
129.861816 0.09104 
129.949814 0.071669 
131.04921 5.874978 
132.052597 0.419534 
135.08046 3.472251 
141.456589 0.075173 
142.030441 0.1161 
142.308746 0.100731 
143.901764 0.094281 
149.059875 1.057133 
150.85228 0.095041 
151.217133 0.104663 
153.028305 0.114206 
153.307083 0.088337 
159.044037 85.062904 
159.43808 0.09662 
160.047318 30.552496 
160.220215 0.093987 
161.049545 1.660626 
161.762344 0.10493 
162.023453 0.064318 
163.235657 0.113206 
163.843597 0.132644 
164.303894 0.077811 
167.270157 0.114691 
167.490692 0.110013 
168.261627 0.103332 
168.559448 0.109114 
169.988937 0.136109 
171.459641 0.089396 
175.075287 0.24661 
175.098328 0.095565 
175.729828 0.078551 
176.375366 0.09257 
176.513885 0.08297 
177.05455 100.0 
178.057892 33.089233 
178.390533 0.138816 
179.060608 2.844356 
179.069946 2.779802 
179.699097 0.101357 
180.073334 0.313902 
182.368805 0.061521 
183.715652 0.09775 
184.375122 0.092259 
187.076721 0.076419 
187.751358 0.061239 
188.213745 0.099934 
193.049255 0.172196 
194.727844 0.109819 
194.920609 0.122598 
195.065231 3.083441 
196.068817 0.23341 
196.217117 0.065677 
197.191437 0.119875 
200.253555 0.069518 
204.432007 0.090043 
207.065155 65.2099 
207.57756 0.09629 
208.068481 21.569077 
208.078918 0.143874 
209.07045 3.873238 
212.885452 0.100554 
216.697922 0.109536 
218.077026 0.088294 
219.950363 0.613599 
219.956406 0.757628 
219.970566 0.623015 
219.973495 0.6104 
220.360641 0.102905 
220.729294 0.10947 
227.222443 0.108414 
230.966202 0.065627 
231.880554 0.119706 
232.258423 0.10718 
232.408691 0.062321 
239.105591 0.118941 
241.17424 0.095396 
242.349472 0.088305 
243.021667 0.093319 
245.752014 0.088022 
247.938049 0.069485 
257.667206 0.10945 
258.204193 0.113446 
265.702026 0.089516 
266.16333 0.083433 
266.570221 0.095181 
270.12973 0.135737 
271.094147 0.109875 
271.297974 0.079296 
273.013367 0.113139 
273.898315 0.096412 
278.509827 0.097185 
282.502045 0.095524 
290.593475 0.094725 
290.718994 0.106199 
291.027222 0.081537 
292.070312 0.121663 
299.473846 0.106053 
299.817169 0.095644 
307.757538 0.058957 
316.146118 0.10745 
316.472961 0.122003 
316.80838 0.083588 
318.186981 0.119508 
319.210327 0.107279 
327.377716 0.112251 
338.044434 0.07562 
338.400635 0.072929 
339.641174 0.102162 
340.813904 0.112853 
342.43988 0.072286 
343.239075 0.090392 
347.44873 0.097624 
352.934387 0.101784 
356.828094 0.08485 
358.142242 0.097785 
362.359802 0.117617 
END IONS

