BEGIN IONS
PEPMASS=530.272
CHARGE=1+
COMPOUNDNAME=(2E,6E,12E)-18-(2,6-dioxopiperidin-4-yl)-9,11-dihydroxy-8-methoxy-10,12,14-trimethyl-15-oxooctadeca-2,6,12-trienoic acid
LIBRARYQUALITY=3
SMILES=N/A
INCHIKEY=YQDJUXPUIRGKNV-MNOLRWOYSA-N
INCHI=InChI=1S/C27H41NO8/c1-17(21(29)11-9-10-20-15-23(30)28-24(31)16-20)14-18(2)26(34)19(3)27(35)22(36-4)12-7-5-6-8-13-25(32)33/h7-8,12-14,17,19-20,22,26-27,34-35H,5-6,9-11,15-16H2,1-4H3,(H,32,33)(H,28,30,31)/b12-7+,13-8+,18-14+
MSLEVEL=2
SOURCE_INSTRUMENT=N/A-ESI-QFT
FILENAME=library_mgf.mgf
SEQ=*..*
IONMODE=positive
ORGANISM=MONA
NAME=(2E,6E,12E)-18-(2,6-dioxopiperidin-4-yl)-9,11-dihydroxy-8-methoxy-10,12,14-trimethyl-15-oxooctadeca-2,6,12-trienoic acid [M+Na]+
PI=MoNA
DATACOLLECTOR=MoNA:VF-NPL-QEHF001652
PUBMED=N/A
SUBMITUSER=mwang87
TAGS=
SPECTRUMID=CCMSLIB00004692715
SCANS=1652
51.137581 1.421388 
51.193695 0.665161 
51.38554 0.979765 
51.606766 1.443764 
51.833221 1.039269 
52.09211 0.337078 
52.107082 1.238252 
52.223083 1.559384 
52.279285 0.366501 
52.627655 0.568569 
52.86853 1.278027 
52.932747 0.358963 
53.05109 1.798455 
53.232082 1.570547 
53.415977 1.509917 
54.224934 0.63014 
54.233982 0.257882 
54.300129 1.618885 
54.463207 1.194441 
54.719524 1.434154 
54.766712 0.683161 
54.84396 0.812978 
54.886658 0.65694 
55.380669 0.16885 
55.73579 0.323122 
56.152039 1.525553 
57.134018 0.438408 
57.220303 1.165741 
57.749969 1.211087 
58.693264 1.572006 
59.010975 1.21352 
59.061134 0.390716 
60.0984 1.767334 
60.591084 1.001957 
60.606869 0.936472 
60.88633 1.663979 
61.203358 0.356618 
61.264053 1.408877 
61.453003 0.340191 
61.59314 0.77894 
61.711842 0.67899 
62.422165 0.542214 
64.045868 1.134615 
64.372452 0.432287 
65.043747 0.581983 
65.157883 0.585202 
65.953346 1.631174 
66.080009 0.360267 
67.309959 0.430506 
67.611366 1.361007 
67.746521 1.305461 
68.197128 1.511323 
68.234749 0.520306 
68.347816 1.130117 
69.010574 0.803824 
69.364983 1.131843 
69.604813 1.598141 
69.724525 0.269361 
69.82975 0.238625 
70.056824 0.624747 
70.11985 0.339137 
70.440224 1.7583 
70.655388 0.311538 
70.831978 0.196988 
71.382591 0.148776 
71.679909 0.37605 
72.27346 0.312773 
72.742676 0.548121 
73.263031 0.47187 
73.772415 0.897388 
73.788689 0.805066 
74.042328 0.185564 
75.299843 0.390278 
75.45343 0.251264 
76.211128 1.727379 
76.319435 1.071552 
76.461098 0.688695 
77.55928 0.71502 
78.463554 0.1562 
78.566193 0.399107 
79.815399 0.401385 
80.45977 0.445687 
80.732613 0.190743 
81.16095 0.462004 
81.341843 0.486249 
81.347702 0.580018 
82.076088 0.613231 
82.233551 0.570983 
82.573486 0.184757 
85.176285 2.180629 
85.786491 0.540337 
87.138893 1.021628 
87.702515 0.692822 
88.246002 0.404501 
88.924194 0.428627 
90.961197 0.422418 
91.123978 0.370743 
91.998947 0.730537 
93.070374 0.411923 
93.449509 0.372095 
93.979897 1.467354 
94.039261 1.089741 
94.506676 0.424799 
95.023727 1.298318 
96.0877 0.813608 
97.260246 1.616408 
98.112984 1.870898 
98.289589 0.45127 
98.8545 0.524704 
99.459198 0.665363 
99.555183 0.528154 
99.946732 0.880582 
100.455383 0.392162 
101.034477 0.563219 
101.451584 0.312077 
102.223671 0.37605 
102.427917 0.510677 
105.55719 0.340076 
106.361839 1.393966 
106.678284 0.14645 
106.967125 1.71348 
107.583199 0.507337 
108.374252 0.575973 
109.040024 0.367472 
113.072517 2.073946 
113.291862 0.297045 
114.343826 0.602814 
114.859825 0.36572 
114.938583 0.177499 
115.051788 1.676751 
115.240761 1.456284 
117.409904 1.560135 
117.954681 0.176693 
119.182381 0.504944 
119.793785 0.370179 
121.843658 0.395129 
121.884804 1.222992 
122.070183 0.676799 
123.332344 0.723722 
123.571251 0.179828 
124.344872 0.267858 
124.418465 0.268469 
124.780754 0.265689 
125.725372 0.151784 
126.375778 0.602695 
126.667358 0.715143 
126.839966 0.793348 
127.697189 0.646294 
127.84404 0.440305 
128.747101 0.698679 
129.378555 1.195525 
129.487671 0.74258 
130.679459 1.543653 
132.698929 1.63672 
133.111923 0.455582 
133.691559 1.524727 
134.021255 5.688736 
134.295731 1.547808 
137.856934 0.443858 
139.832443 0.331551 
140.07048 2.092563 
140.730667 0.27479 
142.023361 0.344149 
145.577423 0.644946 
147.794922 0.424828 
149.446396 0.398167 
149.890198 1.604276 
151.412506 0.393434 
152.430069 0.346978 
152.660263 0.289945 
153.240295 0.670613 
153.28624 0.498048 
154.163162 0.247217 
154.614166 2.036997 
154.720901 0.449284 
154.727905 0.388595 
155.229218 0.179123 
156.304276 0.182835 
156.971802 1.64483 
157.831802 1.658241 
158.945984 0.393367 
159.93187 0.72796 
162.052246 2.812683 
163.060272 2.259919 
164.519623 0.40966 
165.388031 0.270893 
166.38475 1.664293 
171.312454 1.150558 
176.361206 0.3118 
177.076233 2.364554 
179.900879 0.87163 
180.476074 0.415926 
181.07103 13.681689 
182.361343 0.394096 
182.442398 0.319123 
183.75885 1.240578 
187.951447 0.363743 
188.804398 0.620787 
189.041092 0.674038 
189.093964 1.528746 
190.694519 0.500103 
192.435547 0.345303 
192.943573 0.335774 
193.070923 2.484569 
193.108093 0.659832 
195.086731 27.793312 
195.733871 0.483101 
196.088684 1.58229 
197.066071 0.354623 
197.365021 1.917659 
199.081665 3.428451 
199.100296 0.72566 
206.076828 0.707209 
207.050064 13.532889 
207.063644 1.320232 
207.557434 1.505287 
209.065536 0.405137 
213.083755 91.239876 
213.096161 24.557291 
214.100052 0.423633 
215.081787 0.217374 
216.17514 1.732546 
219.099258 1.373473 
220.300003 0.470379 
220.546112 0.363127 
221.065582 0.3572 
221.078461 45.493717 
223.45929 1.20231 
225.060867 7.950318 
225.854111 1.242244 
226.686371 1.824891 
233.101883 6.161433 
234.09787 0.354722 
235.795227 0.656238 
238.841446 0.645978 
238.899567 0.599683 
239.076431 39.735561 
239.86319 1.262639 
240.077805 2.308464 
240.691284 0.238761 
240.705414 0.273681 
241.07312 0.436081 
241.410858 1.620503 
241.848511 0.420187 
245.232269 0.680808 
245.617157 0.171359 
246.563782 0.361261 
247.132416 2.490005 
248.136124 0.39846 
248.225861 0.542669 
249.138275 0.699422 
249.179947 0.965465 
252.107697 3.123489 
253.155533 0.712704 
255.327972 0.350526 
257.087158 1.897312 
258.082092 0.357444 
260.026581 0.613363 
261.957764 0.137681 
262.045837 0.386435 
262.765564 0.321026 
264.274323 0.185081 
268.472839 0.213485 
268.747131 0.309708 
270.118256 3.127566 
274.611694 1.901142 
274.995819 0.160676 
278.273621 1.521009 
280.586334 1.454333 
283.528931 0.403402 
289.591736 0.653212 
291.63092 0.450109 
291.763184 0.154641 
292.072906 0.308255 
292.175201 0.551765 
296.148682 0.407271 
296.735138 0.265157 
299.131866 0.341757 
299.404877 1.114981 
301.228302 0.583916 
302.136078 76.742722 
302.357727 0.574153 
303.042267 1.005382 
303.138916 2.490715 
304.088196 1.060403 
311.052673 2.362959 
314.172455 27.542553 
315.175903 0.537323 
319.151367 8.67649 
320.363739 0.384115 
321.557861 1.205386 
322.191162 1.433086 
323.912201 0.397435 
327.154083 0.541598 
331.188019 7.93972 
332.124268 0.182808 
332.170105 29.018049 
333.172729 4.376492 
335.289307 1.505985 
336.264618 0.65991 
336.665802 0.201389 
340.296173 0.332134 
341.014404 0.89719 
342.385345 0.345583 
342.790161 1.904828 
350.181152 33.996124 
351.183411 6.497664 
352.179413 1.187193 
352.779236 0.731454 
356.979156 0.685367 
360.178192 3.706851 
365.128387 1.838749 
376.572174 0.190828 
382.640076 0.48577 
383.121246 0.378836 
385.069427 0.709199 
388.688171 0.734152 
403.251984 0.143746 
412.196289 0.576776 
412.350616 0.679363 
414.224884 68.768509 
415.228882 2.441214 
415.285034 1.118576 
415.748901 0.75132 
419.806915 0.829829 
429.132904 0.417863 
436.578766 1.651798 
440.691437 0.401511 
441.121948 1.284256 
450.44043 0.673242 
450.821442 0.302081 
455.75473 0.364447 
469.472351 1.505564 
478.453949 0.778727 
480.234558 0.875221 
484.255768 0.424939 
495.81311 0.691999 
498.245605 10.920123 
499.248749 0.42371 
506.971313 0.382651 
509.780823 0.786224 
512.26062 24.546467 
513.263611 1.167174 
516.61084 0.180431 
516.918823 1.717705 
518.583008 0.180128 
525.228149 1.717654 
526.095154 0.628997 
526.14032 0.352135 
527.575867 0.705694 
530.271851 100.0 
531.275085 18.739229 
532.884705 0.64217 
536.437622 0.733972 
540.817932 0.29004 
END IONS

