BEGIN IONS
PEPMASS=271.061
CHARGE=1+
COMPOUNDNAME=naringenin
LIBRARYQUALITY=3
SMILES=N/A
INCHIKEY=FTVWIRXFELQLPI-ZDUSSCGKSA-N
INCHI=InChI=1S/C15H12O5/c16-9-3-1-8(2-4-9)13-7-12(19)15-11(18)5-10(17)6-14(15)20-13/h1-6,13,16-18H,7H2/t13-/m0/s1
MSLEVEL=2
SOURCE_INSTRUMENT=N/A-ESI-QFT
FILENAME=library_mgf.mgf
SEQ=*..*
IONMODE=negative
ORGANISM=MONA
NAME=naringenin [M-H]-
PI=MoNA
DATACOLLECTOR=MoNA:VF-NPL-QEHF000565
PUBMED=N/A
SUBMITUSER=mwang87
TAGS=
SPECTRUMID=CCMSLIB00004691628
SCANS=565
51.646873 0.00702 
51.871052 0.010507 
52.218487 0.01128 
52.401932 0.013364 
52.517891 0.009308 
52.591263 0.013067 
52.95229 0.01215 
54.070061 0.008738 
54.403984 0.011707 
54.635891 0.010242 
54.828911 0.010231 
55.481236 0.007586 
56.082779 0.00784 
56.668552 0.011415 
56.790771 0.009833 
56.976635 0.009237 
57.179626 0.013583 
57.240353 0.012491 
57.386639 0.011907 
57.92963 0.01315 
59.558956 0.00985 
60.962994 0.009121 
61.328835 0.010352 
61.774017 0.010863 
62.437309 0.01016 
62.571476 0.01041 
62.869621 0.009474 
62.902027 0.006853 
63.022682 0.122057 
63.37429 0.01282 
63.628235 0.009415 
63.949028 0.012391 
64.542114 0.009829 
65.002075 0.278512 
65.607254 0.013305 
68.41304 0.01019 
68.814255 0.010785 
68.889442 0.009448 
68.913696 0.011147 
70.040367 0.010276 
71.157608 0.011228 
73.14679 0.010735 
73.640373 0.010535 
73.668533 0.011365 
74.753838 0.010204 
77.342461 0.012059 
77.614998 0.010735 
79.535439 0.010103 
81.695854 0.011438 
83.012535 0.500277 
83.28492 0.007874 
84.663666 0.012113 
86.015755 0.01144 
86.606544 0.011864 
86.770279 0.01185 
89.074898 0.007611 
89.287392 0.007288 
91.426376 0.008584 
92.021454 0.013259 
93.033257 6.700155 
93.037003 0.010461 
94.036545 0.376498 
95.170349 0.012049 
95.367004 0.012305 
96.387299 0.008876 
96.895233 0.011656 
98.119255 0.00804 
98.755829 0.010122 
98.91098 0.012011 
99.171928 0.007272 
100.645775 0.014222 
104.847168 0.009422 
106.838844 0.012807 
107.008766 0.029343 
107.012619 2.1125 
108.01593 0.007625 
112.247559 0.012021 
113.224495 0.008013 
115.153023 0.009272 
116.349014 0.012559 
119.049011 9.967994 
120.052452 0.763581 
120.363586 0.006932 
121.028435 0.017986 
121.751724 0.01237 
122.086174 0.012047 
122.280312 0.011317 
123.79287 0.008509 
125.023224 0.856403 
125.027748 0.008491 
126.02578 0.007333 
130.498993 0.010767 
132.937744 0.011376 
133.305756 0.014491 
133.349228 0.012555 
138.957794 0.01032 
142.00267 0.00872 
143.435654 0.011107 
145.028427 0.429258 
147.902649 0.010347 
149.023285 0.031591 
149.072235 0.010908 
151.002594 53.542831 
152.005966 3.707262 
152.013138 0.015016 
153.006714 0.079577 
153.636383 0.01242 
155.764603 0.009384 
157.59729 0.013111 
158.647949 0.011379 
162.126328 0.012145 
163.58374 0.011415 
165.018372 1.84189 
166.021515 0.066343 
169.013275 0.948354 
171.155548 0.010352 
173.205093 0.012674 
174.532135 0.00801 
174.905014 0.008429 
175.867737 0.009859 
177.018387 8.548347 
178.007309 0.012463 
178.021851 0.769893 
178.41745 0.007758 
181.115555 0.012145 
183.334259 0.012955 
185.060471 0.016587 
185.512177 0.012898 
191.008713 0.011314 
203.034683 0.008506 
203.717865 0.009353 
204.272949 0.009915 
210.83667 0.006724 
215.708832 0.010047 
216.561737 0.257233 
216.570328 0.173683 
221.199814 0.013777 
221.940506 0.010563 
227.070724 0.716416 
228.074493 0.026529 
231.887863 0.008231 
232.257843 0.014248 
236.537186 0.006763 
252.934875 0.007314 
253.050644 0.095819 
256.971375 0.008025 
261.398468 0.006808 
269.247101 0.008799 
271.061249 100.0 
272.064484 16.218172 
273.066742 0.874613 
279.607178 0.008277 
284.26413 0.013214 
285.961975 0.009504 
END IONS

