BEGIN IONS
PEPMASS=408.247
CHARGE=1+
COMPOUNDNAME=ACTINONIN
LIBRARYQUALITY=3
SMILES=N/A
INCHIKEY=XJLATMLVMSFZBN-VYDXJSESSA-N
INCHI=InChI=1S/C19H35N3O5/c1-4-5-6-8-14(11-16(24)21-27)18(25)20-17(13(2)3)19(26)22-10-7-9-15(22)12-23/h13-15,17,23,27H,4-12H2,1-3H3,(H,20,25)(H,21,24)/t14-,15+,17+/m1/s1
MSLEVEL=2
SOURCE_INSTRUMENT=N/A-ESI-QFT
FILENAME=library_mgf.mgf
SEQ=*..*
IONMODE=positive
ORGANISM=MONA
NAME=ACTINONIN [M+Na]+
PI=MoNA
DATACOLLECTOR=MoNA:VF-NPL-QEHF027311
PUBMED=N/A
SUBMITUSER=mwang87
TAGS=
SPECTRUMID=CCMSLIB00004720892
SCANS=27311
50.383358 0.288054 
50.776852 1.49355 
50.785198 1.352388 
51.363346 0.730828 
51.385101 0.603887 
51.680382 0.900621 
52.375328 0.868935 
52.417454 1.040718 
53.429504 0.609726 
53.69698 1.084051 
54.613022 1.240046 
55.224575 1.035728 
55.853294 0.591335 
55.923481 1.265621 
56.303467 0.81506 
56.589287 2.139181 
56.817352 1.524718 
57.574764 0.491438 
57.679184 1.00824 
58.518017 0.697142 
58.877831 0.943258 
59.726662 1.091894 
59.994797 0.639684 
60.079575 0.681096 
60.512821 0.469445 
62.311176 0.301231 
62.880238 0.890096 
63.369343 0.660016 
63.730827 0.34681 
63.758846 0.672109 
63.797131 0.973549 
63.907703 1.385156 
63.970364 0.470344 
64.753021 1.204904 
65.433121 1.132791 
65.823364 0.880657 
66.266899 0.65172 
67.528526 1.375836 
67.532249 0.54142 
68.268707 0.872395 
68.514778 0.710915 
68.735481 1.067452 
69.29747 1.593845 
69.425545 0.691725 
69.906082 0.614754 
70.343307 0.677946 
70.529984 0.309116 
70.977654 0.619453 
71.650826 1.427017 
72.080742 0.96048 
72.287155 0.48137 
72.35714 0.40568 
73.340981 0.865358 
74.579865 0.625331 
75.26474 0.685954 
75.442329 0.591859 
76.180977 1.953316 
78.656067 0.735438 
78.797424 0.632793 
79.150818 0.301762 
80.591667 0.986785 
81.680534 1.277555 
81.743126 0.458454 
82.04184 0.663385 
83.220695 1.033774 
83.751106 0.274788 
84.080826 0.301257 
84.265739 0.696998 
84.422935 1.696914 
84.602501 0.499256 
85.1912 1.678754 
86.573547 0.69836 
87.14463 0.926722 
88.412636 0.60215 
88.743591 0.291509 
88.762062 1.051989 
88.98922 1.4011 
89.394501 1.087735 
89.493843 1.068099 
90.497795 0.293076 
90.796509 0.322983 
93.753616 0.707378 
93.762398 0.280165 
96.104362 1.13041 
96.667145 0.697335 
97.426514 0.597018 
98.287025 0.410346 
98.600189 0.265129 
99.002945 0.952888 
99.926994 1.012687 
100.492531 1.166528 
100.50721 0.254527 
102.091347 0.914323 
103.4506 0.65582 
105.289246 0.763495 
105.651093 0.351262 
109.321259 1.418709 
109.401688 1.220978 
109.675575 0.52863 
110.488281 1.429853 
112.075554 0.331306 
112.240044 0.947868 
113.250687 0.576143 
117.145256 0.704769 
117.33754 0.26957 
123.496315 0.784411 
123.839188 1.417471 
123.967972 0.883734 
123.982552 0.733932 
124.073242 2.04106 
126.600601 1.168467 
131.560974 1.102595 
132.477722 1.607195 
135.277863 0.427136 
137.167892 0.533093 
138.818558 0.301174 
138.908981 1.631701 
139.859985 0.644688 
140.067978 1.302125 
143.530151 0.363365 
143.546539 0.988098 
144.083374 0.78082 
146.724396 1.092902 
148.031647 0.292081 
149.84021 0.827435 
152.06842 0.524133 
155.950073 1.439416 
162.712372 0.715498 
164.840607 0.465222 
172.59906 0.410937 
172.812057 1.177557 
175.905914 1.233722 
178.430069 0.337819 
179.106842 1.426761 
181.745682 1.138738 
182.113541 0.861567 
184.609009 1.037251 
185.950516 1.241297 
188.773712 0.561646 
194.381775 0.990146 
199.755127 0.517009 
201.062393 1.14863 
201.217361 1.183688 
201.249405 1.212306 
205.723587 1.250001 
206.759094 1.447737 
207.132446 0.355794 
207.409698 0.561134 
208.09436 1.179825 
211.219421 1.043249 
213.730194 51.208778 
214.312195 0.469051 
218.721558 0.341681 
222.231812 1.730495 
223.141449 100.0 
224.144287 3.281625 
233.09848 0.717699 
242.850113 0.60489 
244.905273 1.436495 
248.39151 0.300715 
261.15686 0.349023 
267.579071 1.463819 
268.698578 0.277543 
272.42334 0.309078 
291.167603 1.012371 
294.496796 1.228381 
296.601227 0.709362 
297.384644 0.74054 
298.283752 1.043463 
300.999634 0.275242 
318.279755 1.080964 
327.169098 1.007707 
329.656403 0.339403 
336.134552 1.075051 
340.657654 1.236321 
340.910553 1.133062 
343.606537 0.781535 
344.741211 1.621613 
352.981781 0.527545 
374.289429 0.522815 
380.582458 1.526262 
381.594666 0.384852 
382.179291 0.632944 
383.668884 1.466507 
387.756226 0.436014 
390.235626 36.987549 
390.351501 0.373138 
393.478729 0.382981 
399.190796 0.785036 
404.030518 1.578639 
408.245514 7.121537 
409.171692 0.721656 
418.055695 0.557836 
419.730499 0.746418 
426.004852 0.343861 
428.022888 0.6858 
434.034149 0.445731 
END IONS

