BEGIN IONS
PEPMASS=180.2
CHARGE=1+
COMPOUNDNAME=ReSpect:PS023206 Fusaric acid|Fusarate|Fusarinic acid|5-Butylpicolinic acid|5-butylpyridine-3-carboxylic acid
LIBRARYQUALITY=3
SMILES=CCCCC1=CN=C(C=C1)C(=O)O
INCHIKEY=DGMPVYSXXIOGJY-UHFFFAOYSA-N
INCHI=N/A
MSLEVEL=2
SOURCE_INSTRUMENT=ESI-Flow-injection QqQ/MS
FILENAME=respect_8_1_2014_GNPS_peaks.mgf
SEQ=*..*
IONMODE=Positive
ORGANISM=RESPECT
NAME=ReSpect:PS023206 Fusaric acid|Fusarate|Fusarinic acid|5-Butylpicolinic acid|5-butylpyridine-3-carboxylic acid [M+H]
PI=Putative ReSpect Match
DATACOLLECTOR=ReSpect
PUBMED=N/A
SUBMITUSER=mwang87
TAGS=
SPECTRUMID=CCMSLIB00000213710
SCANS=2525
29.0 33.0 
39.0 98.0 
40.0 35.0 
41.0 94.0 
55.0 50.0 
64.0 228.0 
65.0 999.0 
66.0 198.0 
77.0 37.0 
79.0 33.0 
90.0 40.0 
91.0 455.0 
92.0 521.0 
133.0 37.0 
END IONS

