BEGIN IONS
PEPMASS=1876.55
CHARGE=1+
COMPOUNDNAME=Teichomycin
LIBRARYQUALITY=3
SMILES=N/A
INCHIKEY=BJNLLBUOHPVGFT-QRZIFLFXSA-N
INCHI=InChI=1S/C88H97Cl2N9O33/c1-3-4-5-6-7-8-9-10-60(108)94-68-74(113)71(110)58(32-101)129-87(68)132-78-55-26-40-27-56(78)126-52-18-14-38(24-47(52)90)77(131-86-67(92-34(2)103)73(112)70(109)57(31-100)128-86)69-84(121)98-66(85(122)123)45-29-42(105)30-54(127-88-76(115)75(114)72(111)59(33-102)130-88)61(45)44-23-37(13-15-49(44)106)63(81(118)99-69)96-83(120)65(40)97-82(119)64-39-21-41(104)28-43(22-39)124-53-25-36(12-16-50(53)107)62(91)80(117)93-48(79(116)95-64)20-35-11-17-51(125-55)46(89)19-35/h11-19,21-30,48,57-59,62-77,86-88,100-102,104-107,109-115H,3-10,20,31-33,91H2,1-2H3,(H,92,103)(H,93,117)(H,94,108)(H,95,116)(H,96,120)(H,97,119)(H,98,121)(H,99,118)(H,122,123)/t48-,57-,58-,59-,62-,63-,64+,65-,66-,67-,68-,69+,70-,71-,72-,73-,74-,75+,76+,77-,86+,87+,88+/m1/s1
MSLEVEL=2
SOURCE_INSTRUMENT=N/A-ESI-QFT
FILENAME=library_mgf.mgf
SEQ=*..*
IONMODE=positive
ORGANISM=MONA
NAME=Teichomycin [M+H]+
PI=MoNA
DATACOLLECTOR=MoNA:VF-NPL-QEHF027948
PUBMED=N/A
SUBMITUSER=mwang87
TAGS=
SPECTRUMID=CCMSLIB00004721529
SCANS=27948
129.069687 0.198792 
132.044342 0.366994 
132.901764 0.074769 
133.051987 0.202312 
133.368576 0.090437 
133.741623 0.076475 
134.059982 0.10339 
135.116531 0.260316 
138.054901 100.0 
138.060974 1.368219 
139.058228 3.824467 
139.162766 0.080936 
139.42778 0.083331 
141.069809 3.466211 
141.127701 0.087772 
142.263367 0.106232 
143.20462 0.084649 
144.06543 73.503281 
145.068939 1.721678 
146.060364 0.102475 
146.252838 0.095803 
146.476562 0.091234 
147.043839 0.270084 
147.091522 0.791453 
148.43396 0.093463 
150.055542 0.093312 
153.033859 3.397213 
157.064636 0.848701 
163.585892 0.077905 
163.667038 0.078913 
164.026215 0.190933 
164.920135 0.101319 
166.058136 0.082465 
166.652573 0.082314 
168.020691 1.077904 
168.057236 0.172377 
168.065155 2.84578 
169.064575 14.981607 
169.101212 0.092882 
170.068039 0.493978 
171.043777 0.085594 
171.205048 0.090843 
172.169571 0.741278 
181.06514 0.209343 
184.251175 0.077639 
185.059555 2.035463 
186.07605 0.258988 
187.075165 1.504235 
196.0755 1.603916 
196.168381 0.086865 
197.059586 21.294781 
198.054504 0.66484 
198.063492 0.35726 
200.070679 0.198806 
204.247803 0.09038 
207.038742 0.086705 
208.808792 0.095614 
212.070404 6.703295 
212.524963 0.104073 
213.054504 13.565802 
213.073135 0.106621 
213.579666 0.091173 
214.057861 0.092638 
214.085999 5.659113 
215.069962 21.994183 
215.088791 0.086698 
215.272797 0.1115 
216.073761 0.781755 
219.979523 1.050171 
220.003571 0.098938 
221.909729 0.110378 
222.054764 0.982116 
223.062958 0.097866 
224.070343 2.674731 
225.05426 4.81394 
225.078217 0.721734 
226.061462 0.184383 
226.087097 0.098177 
227.070084 1.364573 
228.065994 0.105104 
229.046082 0.110745 
230.080994 0.391511 
230.296021 0.106912 
231.626068 0.081256 
236.069656 0.103722 
236.163879 0.562275 
236.577591 0.088851 
238.049545 1.99667 
239.081329 1.255621 
240.065323 33.412842 
240.088165 2.606766 
240.846893 0.083503 
240.908234 0.099178 
241.049408 3.755241 
241.070465 2.793388 
241.096497 1.281055 
242.080978 42.241859 
243.084351 3.333964 
248.164154 4.368214 
250.179962 13.832084 
251.182877 0.347422 
252.065094 5.770604 
253.049271 3.691098 
254.080917 0.312446 
255.076279 0.128285 
257.091736 11.147565 
257.657471 0.090793 
258.076019 1.214443 
258.095001 0.108328 
262.163269 0.080626 
264.251495 0.089154 
267.076355 0.091865 
268.060303 11.538311 
269.043945 0.554381 
269.065491 0.810935 
270.075836 0.188827 
270.899261 0.092892 
271.061737 0.097222 
273.958282 0.130084 
279.075653 0.192488 
280.059509 0.097416 
281.091156 0.099546 
283.071075 0.48547 
285.08667 2.965686 
286.027954 0.121001 
286.070526 6.609158 
286.12262 0.111717 
287.730865 0.108626 
289.357941 0.105061 
295.071136 0.112094 
299.10202 0.230134 
300.102325 0.085237 
307.887054 0.087478 
307.933014 0.081081 
314.703308 0.086648 
320.019806 0.101324 
321.023743 0.08812 
325.239105 0.097009 
329.076813 3.347333 
332.102722 0.11106 
344.314484 0.087779 
352.111145 0.091125 
356.823517 0.093947 
357.290405 0.090727 
360.866882 0.086543 
373.883698 0.103319 
374.056458 0.105036 
375.096191 0.092726 
381.670349 0.092039 
391.084595 0.103124 
393.665314 0.099297 
427.06189 0.137188 
456.085388 0.087552 
457.748199 0.094296 
472.644165 0.108775 
473.114685 0.088051 
475.125824 0.113073 
482.068329 0.115319 
487.133759 0.105573 
489.552887 0.092005 
492.157928 0.110707 
492.562592 0.090351 
495.861176 0.084709 
505.464539 0.094933 
516.995239 0.084717 
523.474487 0.082595 
527.530212 0.089612 
533.725952 0.095019 
552.247559 0.08225 
563.588257 0.084371 
564.277588 0.093451 
597.470825 0.084583 
602.441589 0.09099 
632.649719 0.098053 
642.139587 0.417665 
649.093933 0.104226 
661.089111 0.575663 
663.104065 0.209256 
665.085876 0.148534 
668.106323 0.098467 
676.102051 0.303437 
677.097107 0.093771 
678.116211 1.620072 
679.115234 0.097674 
680.124146 0.227575 
688.102478 0.375474 
689.093689 0.228324 
690.110718 0.137349 
691.10083 0.09681 
702.120178 0.10308 
702.52478 0.101811 
704.095825 1.6971 
706.108948 2.666995 
712.102356 0.087749 
716.095642 0.106061 
721.124023 0.322617 
732.091431 0.107987 
733.124329 0.130706 
760.081604 0.119235 
781.264832 0.112824 
805.302734 0.106167 
817.261047 0.093199 
856.491272 0.09514 
869.420898 0.089001 
885.653259 0.090745 
905.745544 0.109101 
995.070557 0.106854 
1021.12677 0.099536 
1048.055664 0.089949 
1054.602661 0.118438 
1068.633789 0.115299 
1069.021606 0.096656 
1127.645508 0.096024 
1133.388306 0.104284 
1147.674927 0.096428 
1230.089111 0.121524 
1292.755859 0.111374 
1344.901489 0.101538 
1362.447021 0.124131 
1536.18103 0.10545 
1538.514282 0.097992 
1656.560059 0.109538 
1689.067627 0.107488 
1706.358398 0.108533 
1754.749756 0.110967 
1800.791382 0.101684 
1846.109985 0.11019 
1927.346191 0.115586 
1934.097778 0.099381 
END IONS

