BEGIN IONS
PEPMASS=526.318
CHARGE=1+
COMPOUNDNAME=(2E,4E)-1-[(2R,6S,14S,22S,25R)-25-(3,3-dimethyloxiran-2-yl)-15-methyl-1,3,13,15-tetraazaheptacyclo[18.4.1.0�,?.0?,��.0?,��.0�?,��.0�?,��]pentacosa-7,9,11,16(21),17,19-hexaen-3-yl]hexa-2,4-dien-1-one
LIBRARYQUALITY=3
SMILES=N/A
INCHIKEY=XZFSMUXVAYCHFO-QREHLELFSA-N
INCHI=InChI=1S/C32H36N4O2/c1-5-6-7-15-24(37)35-18-16-31-21-12-8-9-13-22(21)33-28-32(31)17-19-36(29(31)35)26(27-30(2,3)38-27)20-11-10-14-23(25(20)32)34(28)4/h5-15,26-29,33H,16-19H2,1-4H3/b6-5+,15-7+/t26-,27?,28+,29+,31-,32-/m1/s1
MSLEVEL=2
SOURCE_INSTRUMENT=N/A-ESI-QFT
FILENAME=library_mgf.mgf
SEQ=*..*
IONMODE=positive
ORGANISM=MONA
NAME=(2E,4E)-1-[(2R,6S,14S,22S,25R)-25-(3,3-dimethyloxiran-2-yl)-15-methyl-1,3,13,15-tetraazaheptacyclo[18.4.1.0�,?.0?,��.0?,��.0�?,��.0�?,��]pentacosa-7,9,11,16(21),17,19-hexaen-3-yl]hexa-2,4-dien-1-one [M+NH4]+
PI=MoNA
DATACOLLECTOR=MoNA:VF-NPL-QEHF021755
PUBMED=N/A
SUBMITUSER=mwang87
TAGS=
SPECTRUMID=CCMSLIB00004712818
SCANS=21755
50.240192 0.068782 
50.610672 0.064627 
50.868473 0.065276 
50.898407 0.035958 
51.334351 0.04878 
51.410015 0.076165 
51.91367 0.0661 
52.044865 0.062189 
52.891449 0.067585 
53.175182 0.069479 
53.338707 0.051848 
53.367722 0.052947 
53.721382 0.072795 
53.913445 0.043526 
55.028072 0.070369 
55.054543 0.402198 
55.533161 0.025933 
56.018375 0.064235 
56.164879 0.067265 
57.169437 0.076229 
58.801468 0.071552 
58.874821 0.058623 
59.049389 0.770491 
59.282185 0.043075 
60.13908 0.038691 
60.315987 0.025491 
60.858883 0.047811 
61.805336 0.042889 
62.257317 0.036098 
63.383713 0.042388 
64.024277 0.070927 
64.191505 0.026934 
64.425438 0.023198 
64.4683 0.067055 
64.900612 0.061811 
65.038742 3.443611 
65.743607 0.023064 
66.894745 0.06148 
67.054344 41.491695 
67.256599 0.052181 
67.565063 0.068774 
68.057671 1.934768 
68.728287 0.040744 
69.95153 0.075681 
70.156693 0.070536 
70.529961 0.041355 
70.661034 0.079161 
71.111008 0.066439 
71.32325 0.026523 
72.756187 0.072521 
72.794212 0.030726 
73.128517 0.034287 
73.920975 0.057423 
74.792229 0.032774 
74.936111 0.083881 
75.444786 0.075418 
75.471169 0.080235 
75.649567 0.032705 
76.017418 0.051285 
77.571945 0.040588 
79.902527 0.070793 
81.069855 0.49155 
82.197937 0.038199 
83.049133 2.034103 
83.175278 0.020905 
84.187286 0.041305 
84.437012 0.066041 
87.480354 0.023596 
92.227654 0.066094 
92.729652 0.083808 
93.087738 0.043889 
93.120117 0.048513 
95.049118 100.0 
95.085579 0.214136 
96.052483 5.995458 
96.055573 0.075613 
96.434311 0.058962 
96.574287 0.064106 
97.744217 0.045865 
99.159027 0.080216 
101.798141 0.102196 
104.01326 0.041981 
104.877441 0.032482 
105.87632 0.062794 
106.065376 0.100503 
107.707077 0.038442 
107.948242 0.020867 
110.564362 0.041112 
111.04409 0.25039 
112.23941 0.026629 
112.436729 0.055313 
113.113869 0.082143 
115.284676 0.028315 
115.493446 0.060079 
115.820038 0.023001 
117.37532 0.076568 
118.065163 0.137376 
118.094139 0.073556 
120.950195 0.067419 
122.104683 0.026524 
124.062256 0.080891 
125.079674 0.052218 
129.949005 0.056246 
130.065094 4.444905 
131.068588 0.105965 
131.758377 0.051596 
132.02095 0.053206 
132.080521 0.158369 
136.1306 0.071584 
138.0914 0.389603 
141.048141 0.025659 
144.080795 9.524713 
145.083893 0.317314 
151.002258 0.025227 
153.088913 0.038903 
153.882202 0.057858 
154.064636 0.077197 
155.054596 0.041784 
156.06813 0.122065 
156.080917 1.472749 
157.076416 0.058265 
158.096436 2.162153 
158.39122 0.05734 
158.570267 0.034013 
159.091583 33.870647 
160.075546 0.236709 
160.094803 8.544047 
161.007828 0.078039 
161.098129 0.191777 
162.631302 0.043451 
166.86145 0.08183 
168.080658 6.14619 
169.076248 0.343286 
169.088364 0.085053 
170.083817 0.228009 
170.096313 5.692465 
171.091614 3.157495 
171.118668 0.026737 
172.075943 0.295891 
172.099426 1.605891 
172.112091 0.330556 
179.405624 0.072077 
181.088669 1.654376 
182.096558 2.994416 
183.09166 15.072854 
184.075699 3.215574 
184.099304 2.697357 
185.083374 0.650339 
185.107315 8.694759 
186.078766 0.829888 
186.091385 6.720945 
186.110855 0.237538 
187.086624 0.147972 
187.122772 0.043678 
190.504333 0.027495 
192.851639 0.026922 
194.097 0.216023 
195.091995 0.079156 
196.074951 0.060261 
196.099548 0.890383 
196.112 1.209238 
197.107376 3.999737 
197.118164 0.049074 
197.13765 0.053347 
197.745453 0.047246 
198.09137 5.049551 
198.114975 3.123778 
198.12767 0.278985 
199.08667 2.136167 
199.098434 0.529664 
199.123169 0.411512 
200.091217 0.275174 
200.107056 2.337906 
201.102173 0.57709 
201.54657 0.02337 
202.607422 0.048132 
208.112732 0.049364 
209.106964 0.046886 
210.127594 0.913655 
210.953766 0.042161 
212.130051 0.088104 
213.043365 3.311775 
213.061783 0.054558 
213.101852 0.103105 
214.123169 0.063521 
215.117859 35.942394 
216.121643 2.131637 
220.112305 0.036201 
221.760025 0.039132 
222.12793 0.071618 
222.89917 0.125192 
224.107132 0.201608 
225.102554 0.299135 
226.12265 0.457487 
227.231812 0.041679 
228.138016 0.172925 
229.896271 0.373358 
234.574753 0.058847 
235.122482 0.081173 
236.143707 0.178938 
237.138504 1.287745 
238.122589 0.380674 
240.13826 0.742108 
240.359924 0.052334 
240.909439 0.203585 
246.898834 0.040526 
247.739059 0.052169 
250.172806 0.043234 
251.31601 0.042392 
251.801071 0.068038 
253.133423 0.620619 
253.84903 0.042007 
255.149185 4.446641 
256.153107 0.08645 
257.108002 0.064161 
264.909271 1.145805 
266.154236 0.04716 
267.162933 0.058284 
270.05838 0.040701 
270.115234 0.031419 
271.123016 0.345771 
273.15979 2.01062 
273.672943 0.038853 
275.215942 0.078385 
276.994049 0.072424 
282.114105 0.062984 
282.919708 0.268234 
283.122925 1.873666 
284.130402 1.118698 
285.138489 2.138772 
286.145203 0.122787 
287.068207 0.077591 
290.969147 0.043638 
294.113434 0.148062 
295.122681 0.906339 
296.130066 1.401067 
297.138428 3.669775 
298.131927 0.044668 
298.146637 0.654488 
299.153687 2.515647 
299.980591 0.039073 
300.150024 0.270789 
302.43573 0.0542 
304.167725 0.043877 
307.124512 0.045665 
308.130768 0.729097 
308.816589 0.068642 
309.13858 3.960719 
309.15683 0.049943 
310.14566 2.423915 
311.154144 1.697861 
312.14798 1.128822 
313.133575 0.588829 
313.15274 0.374479 
313.170258 1.752662 
314.165131 0.391631 
315.148773 0.319054 
315.676819 0.024843 
319.01355 0.032707 
322.146912 0.084847 
323.154083 6.028965 
324.155548 0.378602 
325.133301 0.646283 
325.15683 0.262566 
326.142273 1.580138 
326.164673 8.828785 
327.149231 4.791484 
327.168915 1.728628 
328.152374 0.07529 
329.187012 0.046303 
330.179504 0.250929 
339.150085 0.367438 
340.180817 3.575849 
341.164093 12.709074 
341.516327 0.038603 
342.161469 3.523729 
343.166992 0.130811 
343.191742 13.418356 
344.194977 2.784879 
345.497437 0.08033 
349.696899 0.07289 
352.144104 0.100245 
353.199799 0.031803 
357.184052 0.142465 
357.207581 0.112463 
358.191528 0.338757 
363.186462 0.198272 
365.849945 0.078378 
365.984192 0.082021 
366.173096 0.156774 
367.180389 2.01866 
368.18219 0.252384 
369.172089 0.116156 
370.154999 0.754998 
381.195526 3.854319 
382.198761 0.145066 
385.190277 0.460448 
387.226532 0.038567 
388.96991 0.063421 
399.206482 1.246018 
400.654266 0.069935 
408.845245 0.053026 
409.202484 1.283855 
420.667084 0.055701 
422.713226 0.043862 
424.220215 0.135509 
431.114319 0.048453 
434.222443 0.276399 
437.233093 12.695853 
437.790436 0.034821 
438.236328 2.281339 
438.267151 0.084813 
442.714722 0.044417 
452.233185 1.083155 
452.905121 0.071468 
453.228394 5.804297 
454.231384 1.745104 
461.262299 0.083944 
481.306122 0.038013 
491.770447 0.059139 
518.277832 0.045528 
547.699158 0.047022 
END IONS

