BEGIN IONS
PEPMASS=623.337
CHARGE=1+
COMPOUNDNAME=deferrioxamine E
LIBRARYQUALITY=3
SMILES=N/A
INCHIKEY=NHKCCADZVLTPPO-UHFFFAOYSA-N
INCHI=InChI=1S/C27H48N6O9/c34-22-10-14-26(38)32(41)20-8-3-6-18-30-24(36)12-15-27(39)33(42)21-9-2-5-17-29-23(35)11-13-25(37)31(40)19-7-1-4-16-28-22/h40-42H,1-21H2,(H,28,34)(H,29,35)(H,30,36)
MSLEVEL=2
SOURCE_INSTRUMENT=N/A-ESI-QFT
FILENAME=library_mgf.mgf
SEQ=*..*
IONMODE=positive
ORGANISM=MONA
NAME=deferrioxamine E [M+Na]+
PI=MoNA
DATACOLLECTOR=MoNA:VF-NPL-QEHF004054
PUBMED=N/A
SUBMITUSER=mwang87
TAGS=
SPECTRUMID=CCMSLIB00004695117
SCANS=4054
50.027828 0.002205 
50.372124 0.017502 
50.461887 0.011992 
51.276966 0.015691 
51.314949 0.019472 
51.543064 0.022559 
52.968914 0.005148 
53.145359 0.014055 
53.25264 0.008984 
53.391281 0.002558 
54.509254 0.009309 
54.609539 0.011873 
55.338051 0.010552 
55.502857 0.00968 
55.546425 0.02299 
55.688366 0.014463 
55.959854 0.010099 
55.966892 0.017168 
56.138573 0.005587 
56.645096 0.013394 
56.646156 0.021359 
57.027313 0.002394 
57.38636 0.019438 
57.611729 0.012961 
58.266891 0.012014 
58.297413 0.016391 
58.374939 0.014429 
58.432896 0.013312 
58.508106 0.009211 
58.76429 0.019295 
59.61171 0.01454 
60.171379 0.019027 
60.754696 0.003098 
61.541096 0.008989 
62.166103 0.002253 
62.529724 0.019092 
62.586697 0.01192 
62.664036 0.009333 
62.897545 0.016804 
63.364227 0.018786 
63.47776 0.003263 
64.90316 0.022278 
64.919144 0.002883 
65.008568 0.017892 
65.983757 0.002826 
66.523247 0.010563 
66.939644 0.028924 
67.531509 0.008886 
67.58152 0.017318 
67.994553 0.010046 
69.14563 0.017586 
69.159134 0.015668 
70.311646 0.005779 
70.427635 0.015624 
71.09742 0.017984 
71.252037 0.01364 
71.347 0.002468 
71.746254 0.008729 
71.974586 0.020956 
72.206619 0.002547 
72.345421 0.009798 
73.356972 0.010257 
73.604912 0.016591 
73.669357 0.022396 
73.844536 0.016241 
74.09288 0.00554 
74.444733 0.014995 
74.512627 0.002692 
76.703468 0.013939 
77.154747 0.00305 
80.283447 0.023363 
80.306641 0.009167 
80.830269 0.021795 
81.283302 0.009061 
82.265518 0.015206 
82.711586 0.011034 
83.923294 0.009475 
83.927216 0.008423 
84.081398 1.965032 
85.084702 0.00261 
87.044563 0.009995 
87.117172 0.010887 
88.655388 0.005679 
89.060265 0.023446 
89.138222 0.008444 
90.865517 0.016327 
91.750778 0.022738 
92.020798 0.009181 
95.034477 0.025109 
95.82579 0.011104 
95.899353 0.00324 
96.47213 0.022663 
99.574524 0.002502 
100.039772 0.012779 
100.383232 0.02501 
100.685852 0.014029 
102.091743 0.01077 
103.361336 0.014705 
105.16922 0.01555 
106.063141 18.597567 
107.066467 0.840352 
108.693451 0.01969 
109.050102 0.049848 
109.327179 0.010193 
110.32576 0.002669 
112.724571 0.019917 
115.18116 0.019067 
116.930008 0.019687 
118.115898 0.018538 
120.906647 0.010704 
122.057838 0.194853 
123.005539 10.009415 
123.066032 0.027926 
123.084557 0.046025 
123.089493 9.251339 
124.00885 0.15989 
124.073486 0.079493 
124.092865 0.25429 
125.105156 0.677133 
125.621597 0.026538 
126.775368 0.013796 
129.345062 0.018859 
130.048889 0.003841 
130.875122 0.018068 
132.191132 0.009391 
132.525742 0.019172 
133.744141 0.016636 
135.520401 0.003024 
136.073044 0.025546 
137.104858 0.250529 
139.458099 0.010376 
139.834702 0.009285 
140.031982 0.414034 
141.015869 0.089749 
141.099838 0.326563 
141.37326 0.022048 
141.856689 0.020407 
141.915604 0.002822 
143.474487 0.009827 
143.993668 0.01399 
144.244095 0.012583 
144.763901 0.023601 
146.032455 0.009988 
150.088913 0.073959 
151.084061 0.017209 
151.096924 0.274197 
151.120621 0.003114 
153.039658 0.245638 
154.086487 0.003687 
154.779907 0.005648 
156.722275 0.012095 
157.368851 0.0143 
159.296219 0.003381 
164.16922 0.014499 
164.870529 0.021931 
165.100143 0.262137 
165.611832 0.025345 
166.047485 0.239319 
166.086288 0.052462 
167.675873 0.002552 
168.10202 0.012325 
168.132706 0.021498 
171.901596 0.019364 
171.927353 0.022989 
172.253265 0.023069 
176.82988 0.006091 
177.099991 0.470743 
179.11557 1.176374 
179.697693 0.012046 
180.064026 0.004089 
180.268066 0.002839 
181.058517 0.11909 
183.110596 1.390377 
184.096619 0.003748 
186.614044 0.022421 
189.743515 0.027969 
192.403229 0.003075 
193.992752 0.01008 
194.078293 0.020383 
194.259537 0.002717 
195.074417 0.089635 
195.086761 0.301365 
195.110321 0.2215 
196.094437 0.089897 
196.118301 0.063331 
197.113815 0.002953 
197.339096 0.022378 
199.199036 0.008002 
201.123367 0.091394 
205.094788 1.36258 
206.078857 1.004711 
206.597458 0.024121 
207.110519 0.388175 
207.405151 0.020291 
208.094574 0.283426 
208.422241 0.011278 
209.090179 0.033294 
209.424316 0.003499 
210.097687 0.199667 
210.501099 0.003226 
213.112808 0.003608 
213.785629 0.022544 
215.124283 0.025214 
216.38559 0.01718 
217.841888 0.022033 
221.088516 0.009667 
222.121368 0.395725 
223.105408 15.938538 
224.090836 0.003069 
224.109161 1.354938 
224.136993 0.104146 
225.121017 1.633657 
225.941467 0.01871 
229.366135 0.017524 
230.005035 0.003302 
234.121292 0.290979 
236.137115 0.204885 
237.108826 0.033428 
237.121033 0.794856 
239.100937 0.131848 
240.1082 0.796777 
240.131897 0.276038 
240.210205 0.003124 
241.026001 0.022349 
241.103409 0.06488 
241.115891 1.319566 
248.137009 0.002823 
250.116287 0.464659 
250.463989 0.00344 
251.100479 0.461379 
251.136597 0.308044 
252.131912 0.442277 
257.081543 0.010106 
257.826538 0.013876 
262.189117 0.09262 
264.204376 0.013784 
265.116211 0.57149 
265.151794 0.019677 
266.147369 0.069234 
267.155914 0.006795 
273.77948 0.023867 
277.116333 0.204415 
279.131653 0.512984 
279.215454 5.593377 
280.162872 0.052231 
280.219116 0.637603 
281.23175 0.040091 
283.126434 1.384134 
283.448242 0.013308 
285.98822 0.011368 
286.217316 0.010613 
290.183411 0.00402 
292.163391 0.14164 
293.230804 0.046905 
294.098541 0.02214 
294.178314 0.160726 
295.125763 0.034601 
295.18692 0.031497 
297.226196 0.043581 
303.083344 0.023008 
304.647369 0.011382 
305.11084 0.06741 
305.194916 0.196589 
306.117889 0.002694 
306.144562 0.003125 
306.178864 1.406938 
306.961121 0.01568 
307.125641 0.021743 
307.181854 0.053453 
307.21048 0.251544 
308.158539 0.005805 
308.194672 0.231008 
309.167358 0.025075 
321.160583 0.010124 
321.227112 0.074534 
321.723724 0.003442 
322.138947 0.013976 
322.173889 0.197136 
323.121429 3.15939 
323.205109 22.556196 
323.481842 0.012174 
324.125 0.222192 
324.208588 3.356869 
325.220551 0.411054 
326.223297 0.003156 
329.881836 0.003128 
333.226196 0.061542 
336.188629 0.051896 
337.198181 0.038779 
337.2211 0.026842 
338.454346 0.018584 
340.14917 0.028458 
340.357849 0.010127 
341.21637 0.763693 
345.294617 0.011837 
348.194031 0.020115 
350.205078 0.006892 
351.199646 0.030784 
351.214325 0.064936 
351.236542 0.030909 
353.154724 0.017156 
361.220856 0.983251 
361.24765 0.003684 
365.215698 4.354993 
366.163422 0.312606 
367.168335 0.003305 
367.228271 0.032215 
370.016693 0.006388 
371.364258 0.010985 
372.520966 0.02009 
377.215302 1.8984 
378.19635 0.016855 
378.221558 0.277103 
378.279907 0.020335 
379.231598 1.899683 
380.178436 0.175237 
380.235718 0.11535 
381.185516 0.014818 
383.226593 1.143334 
387.725922 0.020813 
388.187103 0.004267 
389.217133 0.063516 
390.198761 0.023109 
391.203552 0.013083 
393.212036 0.120014 
394.216827 0.013884 
395.1987 0.018699 
405.210754 2.983817 
406.192566 1.125511 
406.21814 0.585651 
407.197021 0.076031 
407.225555 0.486313 
408.20813 0.026332 
409.217194 0.016236 
414.256439 0.002973 
419.424011 0.009638 
420.222046 0.077935 
421.242157 0.011103 
423.221161 18.647333 
424.224945 3.949776 
425.198029 0.019344 
425.233612 0.585635 
429.789886 0.018213 
433.206421 0.039485 
434.208557 0.100514 
435.341949 0.029755 
436.88974 0.009581 
437.235992 0.09304 
440.248535 0.049097 
441.232239 0.829428 
441.32724 0.011777 
451.216187 0.109987 
457.016418 0.028663 
465.231812 0.887156 
477.231506 0.064752 
479.247009 0.047583 
479.331451 1.758656 
480.335114 0.215808 
481.223755 0.004255 
483.24295 0.867678 
490.259796 0.006109 
490.296906 0.007046 
491.244202 0.018521 
505.22699 1.076306 
506.230377 2.072244 
506.2948 0.356035 
507.232574 0.974412 
508.272125 0.159719 
509.253967 0.062091 
512.914429 0.021541 
523.240723 1.6374 
523.321533 13.511552 
524.24176 0.246709 
524.324951 3.558407 
524.572327 0.026315 
525.295166 0.014273 
525.330688 0.251245 
535.358582 0.126545 
536.361694 0.026892 
549.334473 0.076864 
550.320312 0.00255 
551.315369 0.033074 
552.262146 0.012921 
553.283752 0.002887 
561.337097 0.01537 
562.28186 0.037451 
565.332397 1.80776 
566.33905 0.013365 
572.608398 0.024162 
577.333191 0.055879 
579.347839 4.17084 
580.349854 1.187049 
580.660034 0.01277 
581.321899 0.017253 
581.357605 0.025822 
582.649353 0.002962 
589.294373 0.070417 
589.333313 0.072455 
590.190491 0.010763 
590.277222 0.028287 
590.311462 0.034023 
601.147217 0.018439 
605.32605 0.975285 
606.314819 0.792559 
607.30481 0.368288 
617.285156 0.014308 
621.325073 0.96073 
622.327393 1.153041 
623.337036 100.0 
624.340271 30.791561 
625.351135 10.262013 
642.540771 0.01595 
END IONS

