BEGIN IONS
PEPMASS=509.291
CHARGE=1+
COMPOUNDNAME=(2E,4E)-1-[(2R,6S,14S,22S,25R)-25-(3,3-dimethyloxiran-2-yl)-15-methyl-1,3,13,15-tetraazaheptacyclo[18.4.1.0�,?.0?,��.0?,��.0�?,��.0�?,��]pentacosa-7,9,11,16(21),17,19-hexaen-3-yl]hexa-2,4-dien-1-one
LIBRARYQUALITY=3
SMILES=N/A
INCHIKEY=XZFSMUXVAYCHFO-QREHLELFSA-N
INCHI=InChI=1S/C32H36N4O2/c1-5-6-7-15-24(37)35-18-16-31-21-12-8-9-13-22(21)33-28-32(31)17-19-36(29(31)35)26(27-30(2,3)38-27)20-11-10-14-23(25(20)32)34(28)4/h5-15,26-29,33H,16-19H2,1-4H3/b6-5+,15-7+/t26-,27?,28+,29+,31-,32-/m1/s1
MSLEVEL=2
SOURCE_INSTRUMENT=N/A-ESI-QFT
FILENAME=library_mgf.mgf
SEQ=*..*
IONMODE=positive
ORGANISM=MONA
NAME=(2E,4E)-1-[(2R,6S,14S,22S,25R)-25-(3,3-dimethyloxiran-2-yl)-15-methyl-1,3,13,15-tetraazaheptacyclo[18.4.1.0�,?.0?,��.0?,��.0�?,��.0�?,��]pentacosa-7,9,11,16(21),17,19-hexaen-3-yl]hexa-2,4-dien-1-one [M+H]+
PI=MoNA
DATACOLLECTOR=MoNA:VF-NPL-QEHF021758
PUBMED=N/A
SUBMITUSER=mwang87
TAGS=
SPECTRUMID=CCMSLIB00004712821
SCANS=21758
51.644203 0.024158 
51.989788 0.048101 
52.022442 0.080302 
52.955902 0.07287 
54.054874 0.073381 
55.144653 0.044228 
55.583851 0.070296 
57.233475 0.071627 
57.247177 0.073386 
58.965305 0.044697 
59.50021 0.064165 
60.059021 0.039661 
62.084991 0.075068 
64.141556 0.076461 
64.186226 0.067066 
64.944954 0.051345 
64.963547 0.039429 
65.038712 3.995758 
66.515076 0.038534 
67.054344 49.884068 
68.057686 1.84161 
71.412979 0.026753 
72.386734 0.045307 
72.513268 0.05424 
72.821938 0.042974 
73.698624 0.03294 
75.159325 0.02477 
75.413231 0.039433 
76.671692 0.043313 
77.202553 0.075848 
77.526505 0.046658 
78.953278 0.073565 
79.42382 0.065177 
79.724403 0.039997 
80.142616 0.066791 
80.599113 0.109418 
82.554459 0.033524 
83.030098 0.064658 
84.176819 0.041114 
87.469177 0.083621 
87.972939 0.026799 
88.345695 0.071123 
88.490898 0.077599 
88.962494 0.070745 
94.490288 0.073932 
95.049149 100.0 
95.693573 0.065432 
96.052505 5.319153 
97.029076 0.09022 
98.867653 0.079058 
100.841759 0.032087 
102.023254 0.078828 
102.381531 0.033313 
102.96907 0.059119 
108.001854 0.050163 
112.278313 0.038433 
113.189346 0.042963 
114.102585 0.078717 
116.164818 0.069514 
116.397255 0.023198 
117.300323 0.044881 
118.06485 0.066082 
118.905479 0.07174 
121.308769 0.067105 
122.20015 0.080518 
122.900047 0.066893 
122.939507 0.075084 
123.556168 0.045185 
124.316391 0.041602 
127.93589 0.053371 
130.065094 1.83816 
133.175369 0.07827 
136.610962 0.058755 
137.885132 0.04721 
138.091339 0.084764 
139.014481 0.037932 
140.305603 0.033329 
144.08075 2.574204 
147.632477 0.075108 
150.12352 0.031439 
151.010834 0.074428 
156.080872 0.220314 
157.076294 0.075088 
158.096344 0.259176 
158.239471 0.065091 
159.091583 28.719202 
159.160385 0.034908 
160.080643 0.025873 
160.095016 2.177277 
162.027664 0.08059 
162.959503 0.083909 
163.176346 0.043789 
163.534134 0.044985 
168.080795 6.435515 
168.4021 0.053835 
169.076324 0.539903 
169.088562 0.125628 
170.083252 0.042406 
170.096359 2.439111 
171.091599 0.936694 
173.219955 0.026533 
174.231796 0.086944 
181.088608 2.404342 
181.911331 0.049201 
182.083954 0.625278 
182.096451 1.989401 
183.091766 13.289305 
184.099594 3.333805 
184.112411 0.098354 
184.756973 0.088173 
185.107422 15.256584 
185.96315 0.056667 
186.110626 1.139667 
186.519455 0.061688 
190.41716 0.075438 
192.195648 0.091217 
194.095993 0.188314 
195.091843 0.91139 
195.104187 0.191422 
195.206894 0.078411 
196.099731 1.560335 
196.112106 1.577563 
196.895508 0.073612 
197.107422 9.817244 
198.09201 0.14049 
198.115417 7.958483 
198.126953 0.574436 
199.122604 0.743112 
202.680405 0.069692 
209.107574 0.085452 
210.127792 2.019485 
212.095505 0.098045 
212.118164 0.07053 
213.146454 3.033397 
220.111343 0.055443 
221.107208 0.049326 
221.119949 0.05843 
222.115234 0.22919 
223.0065 0.043747 
223.123947 0.150472 
223.798889 0.071859 
224.106766 0.240976 
224.681229 0.046443 
224.726074 0.053549 
225.83847 0.027811 
226.122543 1.622863 
230.750519 0.084921 
237.138794 1.767303 
238.122437 0.33896 
238.146057 0.291671 
239.433609 0.080051 
240.138092 0.1637 
242.920822 0.053527 
246.127808 0.094504 
253.133102 0.169402 
255.149124 7.999564 
255.988358 0.061505 
256.152954 0.70617 
256.844147 0.079511 
267.179077 0.042535 
268.536987 0.036408 
272.220551 0.07029 
277.90271 0.042605 
283.123291 1.179031 
284.131073 0.338255 
285.138611 0.985303 
293.1073 0.090174 
294.114716 0.091294 
295.123047 1.111112 
296.130585 1.93161 
297.138794 4.020917 
298.132996 0.561498 
298.14563 0.101813 
299.154144 0.982393 
300.150085 0.199202 
304.166687 0.139206 
307.122925 0.445495 
308.13028 0.829535 
308.307251 0.087582 
309.138336 7.566115 
310.14447 2.063162 
311.138428 0.126027 
311.155273 0.730534 
312.149689 2.464776 
313.156128 0.86014 
313.171234 0.048964 
314.165161 0.726651 
314.738892 0.089829 
318.195038 0.046207 
321.76535 0.080061 
322.14624 0.068944 
323.154236 5.202969 
324.156555 0.555585 
325.157257 0.032705 
326.143799 0.178746 
326.16507 15.308497 
327.169067 3.290392 
337.16861 0.074097 
339.184875 0.210212 
340.180695 6.43028 
341.163177 0.163279 
341.183716 0.837897 
343.191742 31.625883 
344.194916 7.137414 
351.148468 0.125688 
352.150879 0.033018 
353.162933 0.083242 
353.201752 0.065888 
354.375671 0.04867 
355.190826 0.032225 
356.199036 0.229403 
357.206177 0.722738 
359.918365 0.094588 
360.839325 0.228393 
363.186157 0.242815 
364.016876 0.068236 
366.172791 0.316685 
367.180206 3.520954 
368.182983 0.44095 
373.453064 0.037143 
380.315369 0.049308 
381.19577 3.546817 
382.194458 1.089943 
383.196991 0.090714 
393.662842 0.052354 
397.806274 0.064739 
406.87912 0.042128 
420.207092 0.215001 
432.782379 0.076412 
433.604431 0.06357 
434.222046 0.251046 
437.233276 45.723583 
437.511078 0.06945 
438.236572 13.187239 
439.240265 0.279247 
448.385468 0.039644 
504.630035 0.052562 
515.463257 0.041586 
523.935791 0.055516 
526.249573 0.075528 
530.010925 0.035899 
END IONS

