BEGIN IONS
PEPMASS=329.139
CHARGE=1+
COMPOUNDNAME=Gibberellin A4&A7
LIBRARYQUALITY=3
SMILES=N/A
INCHIKEY=SEEGHKWOBVVBTQ-UKJRIFTCSA-N
INCHI=InChI=1S/C19H22O5/c1-9-7-18-8-10(9)3-4-11(18)19-6-5-12(20)17(2,16(23)24-19)14(19)13(18)15(21)22/h5-6,10-14,20H,1,3-4,7-8H2,2H3,(H,21,22)/t10-,11-,12+,13-,14-,17+,18+,19-/m1/s1
MSLEVEL=2
SOURCE_INSTRUMENT=N/A-ESI-QFT
FILENAME=library_mgf.mgf
SEQ=*..*
IONMODE=negative
ORGANISM=MONA
NAME=Gibberellin A4&A7 [M-H]-
PI=MoNA
DATACOLLECTOR=MoNA:VF-NPL-QEHF006589
PUBMED=N/A
SUBMITUSER=mwang87
TAGS=
SPECTRUMID=CCMSLIB00004697652
SCANS=6589
50.340885 0.007177 
50.439232 0.005223 
51.206787 0.006396 
51.317066 0.006947 
51.448833 0.005871 
51.501583 0.006719 
51.58783 0.005869 
52.128464 0.007409 
52.26844 0.007845 
52.326946 0.007499 
52.471699 0.006736 
52.630436 0.006665 
52.957928 0.008053 
53.559845 0.006948 
53.621403 0.006377 
53.668201 0.008519 
53.716339 0.005467 
53.967514 0.007495 
54.473129 0.006606 
54.496864 0.006684 
54.55933 0.005587 
55.017403 0.007188 
55.365471 0.006154 
55.641853 0.007753 
55.759045 0.004956 
56.240021 0.006716 
56.466743 0.00749 
56.545612 0.00708 
57.033157 0.006265 
57.059998 0.006865 
57.503864 0.005406 
57.526115 0.007658 
59.226578 0.007485 
59.337807 0.005816 
59.367538 0.007129 
59.519821 0.006722 
59.61414 0.005118 
60.401909 0.006781 
60.991722 0.19341 
61.338291 0.006982 
61.439541 0.006815 
61.583977 0.006797 
62.850418 0.006601 
63.347626 0.005904 
63.656273 0.006569 
63.710251 0.006858 
63.792591 0.007245 
64.152451 0.00566 
64.201309 0.006402 
64.619148 0.007972 
65.004303 0.006898 
66.303841 0.00637 
66.981194 0.006488 
67.143539 0.006723 
67.27179 0.007251 
67.874123 0.006794 
68.1819 0.006803 
68.835991 0.005866 
69.430206 0.00794 
69.694077 0.00685 
69.924477 0.0069 
71.048859 1.591405 
72.032883 0.007283 
72.052406 0.00888 
72.475746 0.00729 
73.028137 3.039816 
73.030479 0.014498 
74.031502 0.00778 
75.817543 0.006383 
75.890137 0.007113 
76.464508 0.007894 
76.891273 0.005847 
78.011024 0.008225 
78.861031 0.008121 
79.95813 0.006894 
81.245232 0.006177 
81.687454 0.007094 
82.108292 0.00764 
82.219452 0.006668 
83.72113 0.007388 
84.19873 0.007502 
84.201973 0.007277 
84.270882 0.006126 
84.323181 0.007477 
84.408028 0.007451 
86.920441 0.008133 
87.268219 0.006738 
87.476044 0.007946 
87.904266 0.006983 
88.86499 0.008967 
89.432724 0.006981 
89.466705 0.007979 
91.241821 0.005869 
91.979584 0.006607 
92.536179 0.006603 
93.225784 0.007261 
94.152245 0.006551 
95.432495 0.008412 
95.932129 0.006774 
97.107475 0.006955 
97.31649 0.006969 
98.616524 0.007025 
100.156837 0.009573 
101.871582 0.00609 
102.668816 0.007473 
103.754936 0.005513 
104.182228 0.007412 
105.096603 0.006413 
105.537071 0.008177 
107.126106 0.006189 
107.384521 0.005745 
108.277763 0.007371 
108.499092 0.006791 
108.503212 0.006392 
108.544434 0.006583 
109.064636 0.046433 
110.665688 0.006613 
110.678764 0.006339 
110.915222 0.008307 
111.023422 0.008673 
112.070724 0.006841 
112.105469 0.007161 
112.4394 0.007645 
118.226982 0.006867 
119.212921 0.005953 
119.270248 0.006577 
120.825668 0.007645 
122.019753 0.008552 
122.850388 0.007287 
123.504303 0.006575 
124.920174 0.006987 
125.206902 0.00697 
128.36731 0.006387 
129.557907 0.006397 
130.267776 0.006352 
131.236679 0.006294 
133.064774 0.055151 
133.810928 0.006565 
134.535782 0.007655 
135.080368 0.008527 
142.817764 0.006858 
145.796707 0.007117 
146.578445 0.007386 
147.080338 0.020806 
155.08551 2.36481 
155.605331 0.007071 
155.647781 0.006542 
156.088898 0.185978 
157.10173 0.008456 
157.790817 0.009148 
159.212311 0.007114 
160.667099 0.006286 
160.757614 0.007071 
167.766342 0.006525 
170.659912 0.006681 
171.079788 0.007308 
173.096252 0.347567 
173.921249 0.008001 
174.113037 0.007176 
174.558228 0.006011 
176.889984 0.006971 
178.532196 0.006887 
181.101212 0.02121 
183.117126 0.206528 
185.132706 1.384042 
186.13591 0.124288 
192.829468 0.006945 
192.835449 0.006826 
193.101532 0.218691 
195.115997 0.005807 
195.178223 0.007306 
195.341202 0.006897 
196.625366 0.007591 
197.13269 0.537466 
199.112152 0.127035 
199.148544 0.088549 
200.341156 0.007872 
201.127502 0.091093 
201.403137 0.006725 
202.52121 0.006117 
207.117416 0.1199 
209.132202 0.014544 
210.153488 0.007351 
211.112259 11.617332 
211.825226 0.006975 
212.115524 1.744493 
213.128052 0.029292 
213.447113 0.006563 
214.564697 0.006384 
214.922409 0.048212 
214.94101 0.320083 
215.11763 0.006742 
219.117386 0.049142 
221.133041 2.773588 
222.136536 0.451715 
223.128555 0.189589 
223.148682 100.0 
223.952866 0.008088 
224.152145 17.614983 
225.128067 0.379113 
225.14444 0.006022 
225.155319 0.815698 
227.071045 0.087275 
227.143646 0.040691 
227.556824 0.008086 
228.094055 0.006659 
229.122498 0.077133 
233.927841 0.008287 
235.112411 0.026436 
237.128235 3.929999 
238.131592 0.670136 
239.107437 0.03256 
239.143936 1.655015 
240.147247 0.227711 
241.1595 6.293396 
241.900833 0.006317 
242.162918 1.049249 
244.920044 0.006442 
246.682053 0.007334 
249.023132 0.009365 
249.128357 0.274589 
250.131653 0.007807 
250.407684 0.006225 
252.019211 0.008644 
252.114639 0.006263 
253.123093 0.1264 
255.102585 4.994518 
255.138702 0.165303 
256.105774 0.866052 
257.154816 0.622088 
258.157898 0.018629 
259.255981 0.006705 
259.988098 0.007959 
262.424011 0.007852 
267.139038 3.754862 
268.14267 0.681325 
277.255463 0.006502 
279.217133 0.007725 
285.149567 3.201466 
286.153137 0.619601 
298.327271 0.006259 
301.14444 0.015792 
302.764862 0.007089 
304.498047 0.007379 
304.812805 0.008924 
309.354706 0.006673 
309.991486 0.007512 
311.12854 0.728291 
312.131775 0.053948 
313.008331 0.008611 
320.745422 0.007019 
323.581421 0.008043 
326.012177 0.007173 
327.179749 0.065251 
328.18515 0.014557 
329.139374 7.555876 
330.142639 1.451981 
339.208496 0.006569 
340.676605 0.008504 
344.642181 0.007571 
347.140076 0.006239 
352.755402 0.007798 
353.288818 0.008116 
END IONS

