BEGIN IONS
PEPMASS=343.082
CHARGE=1+
COMPOUNDNAME=USNIC ACID
LIBRARYQUALITY=3
SMILES=N/A
INCHIKEY=CUCUKLJLRRAKFN-UHFFFAOYSA-N
INCHI=InChI=1S/C18H16O7/c1-6-14(22)12(8(3)20)16-13(15(6)23)18(4)10(25-16)5-9(21)11(7(2)19)17(18)24/h5,11,22-23H,1-4H3
MSLEVEL=2
SOURCE_INSTRUMENT=N/A-ESI-QFT
FILENAME=library_mgf.mgf
SEQ=*..*
IONMODE=negative
ORGANISM=MONA
NAME=USNIC ACID [M-H]-
PI=MoNA
DATACOLLECTOR=MoNA:VF-NPL-QEHF003232
PUBMED=N/A
SUBMITUSER=mwang87
TAGS=
SPECTRUMID=CCMSLIB00004694295
SCANS=3232
50.788898 0.025897 
50.955441 0.021696 
52.470001 0.029787 
52.549469 0.028186 
53.322163 0.013424 
53.541813 0.019146 
54.019939 0.029503 
54.685352 0.023326 
55.439365 0.010348 
57.535904 0.024658 
60.112366 0.017646 
60.602985 0.022688 
60.631432 0.015364 
62.228516 0.029384 
63.793812 0.018587 
64.80677 0.029012 
66.037277 0.022099 
66.857704 0.02404 
66.953804 0.020285 
67.279106 0.018028 
67.485771 0.030045 
68.402748 0.026954 
71.754402 0.020211 
72.026329 0.01656 
72.420799 0.024237 
72.627449 0.026747 
75.025848 0.026361 
75.429077 0.024926 
75.918015 0.014528 
75.973068 0.030109 
77.190636 0.027031 
78.122498 0.012326 
78.294144 0.020168 
79.511314 0.012966 
79.661034 0.029756 
80.2117 0.024176 
80.376389 0.033969 
80.619179 0.02392 
81.216187 0.012138 
83.01252 52.690388 
84.0159 1.949065 
85.353119 0.021815 
86.916924 0.012348 
87.153259 0.019141 
88.451767 0.017198 
90.146759 0.020723 
91.249863 0.018132 
93.059837 0.026487 
95.048813 0.076922 
95.172318 0.023009 
100.701187 0.020966 
102.376816 0.016215 
104.613441 0.015909 
106.453751 0.015803 
109.617371 0.027469 
109.973747 0.031764 
118.583839 0.026918 
120.280251 0.019813 
128.341064 0.024647 
132.383087 0.025086 
133.064774 0.126429 
135.215546 0.021368 
136.224106 0.026818 
137.349854 0.016646 
139.039047 0.49567 
142.731003 0.017589 
152.412903 0.03406 
153.441879 0.023059 
159.044159 0.021002 
159.7668 0.024962 
161.683685 0.034176 
164.835281 0.023354 
167.788437 0.021977 
170.794388 0.02379 
171.080688 0.247683 
171.173416 0.021375 
172.20546 0.022078 
172.582962 0.016277 
176.364853 0.016869 
178.244263 0.018991 
179.551651 0.024061 
181.7285 0.022072 
184.567825 0.0173 
185.971771 0.029837 
186.27594 0.035759 
187.07608 0.123208 
191.200562 0.021409 
193.743362 0.02241 
194.895859 0.025161 
196.460236 0.021993 
199.075882 0.108842 
204.072708 0.02061 
211.112381 0.039702 
213.091675 0.667092 
214.702759 0.830346 
214.714172 0.576867 
214.721909 0.515938 
215.034332 0.036727 
215.071091 1.304472 
220.081955 0.019054 
229.086487 0.073582 
229.477707 0.027785 
231.065964 22.960381 
232.069473 2.995228 
233.082367 0.039169 
234.440643 0.023331 
237.745987 0.02182 
238.808197 0.019697 
239.071304 0.17363 
240.079498 0.012013 
241.05101 0.036891 
242.058197 0.032649 
253.091827 0.012518 
255.06633 2.971019 
255.102966 0.828644 
256.072968 0.660409 
257.082031 1.511059 
258.0849 0.087829 
259.061188 67.45224 
260.064606 9.672538 
261.066772 0.332867 
267.283295 0.013433 
270.616791 0.023819 
271.097717 0.908129 
271.121674 0.011578 
272.101135 0.067394 
273.076904 0.221382 
281.08255 0.03885 
283.06131 0.689132 
283.3685 0.024808 
284.068695 0.720052 
285.040558 0.067224 
286.048309 1.245691 
293.935211 0.031386 
299.09259 11.147588 
300.064087 0.835037 
300.095612 1.979411 
301.07193 6.182026 
302.075439 0.909286 
306.409668 0.018247 
309.867889 0.025541 
313.035461 5.278084 
314.039185 0.805856 
315.087585 1.789519 
316.090881 0.146721 
323.251373 0.014514 
325.071838 0.932755 
327.052216 0.062455 
328.05899 100.0 
329.062439 17.270285 
329.095398 0.031659 
330.06485 1.278872 
343.082428 12.796365 
343.106506 0.243022 
344.085785 2.29497 
345.087952 0.016976 
345.587494 0.028241 
348.172272 0.031671 
363.348694 0.024314 
367.999847 0.015294 
END IONS

