BEGIN IONS
PEPMASS=639.352
CHARGE=1+
COMPOUNDNAME=3-{[(2S,3R,4S,5R,6R)-3-{[(2S,3S,4R,5R,6S)-3,5-dihydroxy-4-methoxy-6-methyloxan-2-yl]oxy}-4,5-dihydroxy-6-methyloxan-2-yl]oxy}-8-hydroxy-15-methyl-11,18-dioxapentacyclo[10.6.2.0�,?.0?,�?.0�?,�?]icosa-1,3,5,7,9(19),12(20),13,15-octaene-10,17-dione
LIBRARYQUALITY=3
SMILES=N/A
INCHIKEY=PONPPNYZKHNPKZ-BAHCCNBTSA-N
INCHI=InChI=1S/C32H32O14/c1-10-8-9-15-18-16(10)29(38)45-26-17-13(23(35)20(19(18)26)30(39)43-15)6-5-7-14(17)44-32-28(24(36)21(33)11(2)42-32)46-31-25(37)27(40-4)22(34)12(3)41-31/h5-9,11-12,21-22,24-25,27-28,31-37H,1-4H3/t11-,12+,21+,22-,24+,25+,27-,28-,31+,32+/m1/s1
MSLEVEL=2
SOURCE_INSTRUMENT=N/A-Linear Ion Trap
FILENAME=library_mgf.mgf
SEQ=*..*
IONMODE=negative
ORGANISM=MONA
NAME=3-{[(2S,3R,4S,5R,6R)-3-{[(2S,3S,4R,5R,6S)-3,5-dihydroxy-4-methoxy-6-methyloxan-2-yl]oxy}-4,5-dihydroxy-6-methyloxan-2-yl]oxy}-8-hydroxy-15-methyl-11,18-dioxapentacyclo[10.6.2.0�,?.0?,�?.0�?,�?]icosa-1,3,5,7,9(19),12(20),13,15-octaene-10,17-dione M-H
PI=MoNA
DATACOLLECTOR=MoNA:VF-NPL-LTQ001118
PUBMED=N/A
SUBMITUSER=mwang87
TAGS=
SPECTRUMID=CCMSLIB00004685330
SCANS=951
261.109985 4.843964 
289.019989 100.0 
329.130005 25.811384 
461.230011 11.138848 
END IONS

