BEGIN IONS
PEPMASS=326.198
CHARGE=1+
COMPOUNDNAME=ERGONOVINE MALEATE
LIBRARYQUALITY=3
SMILES=N/A
INCHIKEY=WVVSZNPYNCNODU-XTQGRXLLSA-N
INCHI=InChI=1S/C19H23N3O2/c1-11(10-23)21-19(24)13-6-15-14-4-3-5-16-18(14)12(8-20-16)7-17(15)22(2)9-13/h3-6,8,11,13,17,20,23H,7,9-10H2,1-2H3,(H,21,24)/t11-,13+,17+/m0/s1
MSLEVEL=2
SOURCE_INSTRUMENT=N/A-Linear Ion Trap
FILENAME=library_mgf.mgf
SEQ=*..*
IONMODE=positive
ORGANISM=MONA
NAME=ERGONOVINE MALEATE M+H
PI=MoNA
DATACOLLECTOR=MoNA:VF-NPL-LTQ007708
PUBMED=N/A
SUBMITUSER=mwang87
TAGS=
SPECTRUMID=CCMSLIB00004690987
SCANS=6608
111.959999 1.417143 
179.899994 15.122439 
181.899994 11.547194 
195.970001 2.408898 
197.130005 100.0 
207.960007 36.265602 
222.990005 18.058954 
237.029999 3.344423 
251.050003 33.039555 
265.070007 50.282936 
283.089996 24.12509 
END IONS

