BEGIN IONS
PEPMASS=262.122
CHARGE=1+
COMPOUNDNAME=BIOTIN
LIBRARYQUALITY=3
SMILES=N/A
INCHIKEY=YBJHBAHKTGYVGT-ZKWXMUAHSA-N
INCHI=InChI=1S/C10H16N2O3S/c13-8(14)4-2-1-3-7-9-6(5-16-7)11-10(15)12-9/h6-7,9H,1-5H2,(H,13,14)(H2,11,12,15)/t6-,7-,9-/m0/s1
MSLEVEL=2
SOURCE_INSTRUMENT=N/A-ESI-QFT
FILENAME=library_mgf.mgf
SEQ=*..*
IONMODE=positive
ORGANISM=MONA
NAME=BIOTIN [M+NH4]+
PI=MoNA
DATACOLLECTOR=MoNA:VF-NPL-QEHF028123
PUBMED=N/A
SUBMITUSER=mwang87
TAGS=
SPECTRUMID=CCMSLIB00004721704
SCANS=28123
50.008907 0.00086 
50.731266 0.002174 
51.041218 0.007037 
51.257034 0.006511 
51.811226 0.007042 
51.854473 0.006371 
51.986866 0.00097 
52.064869 0.001097 
52.681999 0.007419 
53.358643 0.006723 
53.432163 0.00191 
53.510021 0.004629 
54.048798 0.004793 
54.199883 0.004716 
54.204391 0.005959 
54.33662 0.003724 
54.772488 0.005575 
54.898144 0.003065 
54.935635 0.004667 
56.049809 0.001205 
56.162003 0.003696 
56.218513 0.002369 
56.825855 0.002313 
56.863541 0.004273 
56.985088 0.007053 
57.070049 0.248084 
57.296856 0.001046 
57.29845 0.000967 
58.063549 0.003117 
58.065212 0.013023 
58.386047 0.001901 
58.454323 0.005184 
58.670078 0.003116 
58.793472 0.000947 
58.93449 0.00262 
59.239819 0.001054 
60.002708 0.006177 
60.334217 0.005074 
61.010765 0.051183 
61.27845 0.003447 
61.288483 0.007791 
61.851101 0.002336 
62.018589 0.010673 
62.969788 0.002364 
63.006588 0.012928 
63.154446 0.003347 
63.183285 0.006621 
63.228111 0.001058 
63.736664 0.003187 
64.204002 0.006783 
65.156349 0.003006 
65.677002 0.001185 
66.872932 0.001494 
66.93 0.001495 
67.289024 0.001734 
67.412697 0.006093 
67.997475 0.001007 
68.406624 0.001425 
68.446754 0.006365 
69.991409 0.001386 
70.065018 0.001136 
70.447342 0.001929 
71.018761 0.007205 
71.085503 0.011307 
72.080765 0.020997 
72.717361 0.00498 
72.726639 0.002102 
73.982643 0.001491 
74.015205 0.006973 
74.059921 0.020337 
74.291618 0.001969 
74.631264 0.001138 
74.808975 0.001044 
74.812103 0.003463 
74.931305 0.001962 
76.15464 0.001891 
76.918854 0.001455 
77.843201 0.006832 
78.143494 0.006917 
78.289124 0.007198 
79.021126 0.095755 
80.593323 0.007166 
80.878532 0.002001 
80.979729 0.001246 
81.353493 0.001492 
81.364998 0.001242 
81.519722 0.001261 
82.03186 0.002203 
82.816513 0.006843 
83.085526 0.001373 
84.044365 0.008841 
84.281837 0.006412 
85.010765 0.001676 
85.039421 0.041687 
85.100899 0.002644 
85.986877 0.007058 
86.289993 0.00135 
87.044098 0.013467 
87.538261 0.00701 
88.864769 0.00234 
89.059608 0.007629 
89.701973 0.005587 
90.0252 0.007605 
90.031364 0.006664 
90.08551 0.006939 
90.439041 0.002386 
90.550842 0.003506 
90.957687 0.007884 
91.525948 0.004256 
91.979446 0.005585 
92.016495 0.006208 
93.213875 0.002088 
94.828201 0.00593 
95.085304 0.014822 
95.8517 0.002162 
96.099068 0.006926 
97.039627 0.014804 
97.417442 0.00249 
97.497917 0.007257 
98.095947 0.01232 
98.354019 0.001396 
98.975266 0.025987 
99.790909 0.00496 
100.883598 0.003332 
101.003052 0.028844 
101.010498 0.003077 
101.923126 0.003526 
102.355362 0.003128 
102.968109 0.543411 
102.998856 0.01548 
104.347275 0.003212 
104.558098 0.004193 
104.972176 0.004334 
104.992203 0.056108 
105.117798 0.004776 
105.226707 0.004888 
105.52227 0.00619 
105.942551 0.009078 
106.965179 0.504511 
107.674141 0.005494 
107.989029 0.002612 
108.585983 0.003857 
108.949059 0.003626 
109.0345 0.006894 
110.024597 0.005541 
110.942429 0.005387 
111.864281 0.003167 
112.524651 0.003631 
114.016281 0.001338 
114.713959 0.004036 
116.10675 0.075728 
116.791344 0.006375 
116.829239 0.002013 
116.985588 0.019659 
117.359985 0.006028 
117.625305 0.007512 
117.999428 0.001344 
119.100067 0.005853 
120.467003 0.001422 
120.978683 0.391006 
121.064995 0.00196 
121.269753 0.002498 
121.788101 0.005257 
121.981918 0.001886 
122.982849 0.003751 
123.026329 0.001678 
123.953377 0.001553 
124.936378 0.006977 
124.975754 0.361454 
125.44706 0.002201 
126.269836 0.00155 
128.621002 0.003728 
131.001373 0.00609 
131.936646 0.006875 
133.274445 0.006312 
134.996262 0.005831 
135.080231 0.004348 
136.438232 0.002478 
137.04187 0.003359 
137.665985 0.002249 
137.954224 0.009839 
138.74054 0.005207 
138.989227 0.188167 
139.39473 0.003283 
139.959442 0.001375 
139.99231 0.001779 
140.931625 0.006917 
140.993515 0.001624 
141.802505 0.00645 
142.061157 0.002247 
142.090897 0.006661 
142.986282 0.16946 
146.214783 0.00155 
146.685059 0.007012 
147.080215 0.173314 
147.974518 0.007163 
149.011932 0.006653 
149.048203 0.007296 
150.134338 0.005161 
151.09552 0.002057 
151.373428 0.002633 
151.958649 0.007078 
152.715607 0.0017 
152.945023 0.007159 
152.951492 0.025874 
153.102066 0.007073 
153.873016 0.006165 
154.946747 0.664193 
154.966904 0.010179 
155.052109 0.001942 
155.947662 0.00146 
155.964905 0.004777 
156.355148 0.007651 
156.892685 0.00549 
156.944275 0.026756 
156.962357 0.345224 
157.0 0.011166 
157.654663 0.002998 
157.874756 0.003442 
158.94162 0.017346 
158.959518 0.016257 
160.090698 0.003445 
160.996582 0.009815 
161.188187 0.007464 
162.219513 0.001923 
162.614136 0.003436 
162.95076 0.007527 
163.086334 0.010643 
163.608932 0.001449 
163.841171 0.004797 
163.945557 0.004727 
163.958939 0.03207 
165.937912 0.020946 
167.051804 0.002112 
168.300415 0.005691 
168.962158 0.002294 
170.955475 0.039345 
172.700089 0.000994 
172.957443 0.13462 
174.077454 0.006531 
174.954117 0.008175 
175.063919 0.033861 
175.721939 0.006303 
180.961472 0.022463 
180.981812 0.135778 
181.126175 0.006466 
181.968979 0.001224 
182.047821 0.002765 
182.063156 0.037996 
182.903961 0.001342 
182.941498 0.01522 
182.977814 0.148579 
182.986023 0.007246 
183.006439 0.127144 
183.058304 0.008112 
183.080322 0.001929 
183.956665 0.002862 
184.743515 0.005895 
184.939575 0.19358 
184.979004 0.306503 
185.484161 0.001325 
186.036057 0.002853 
186.936111 0.002701 
188.965439 0.004082 
189.041992 0.003979 
189.966202 0.006592 
190.321442 0.006147 
190.482224 0.001525 
193.074661 0.026601 
194.425446 0.002537 
197.073975 0.053497 
197.926178 0.003054 
198.302551 0.001637 
198.392029 0.004561 
198.992416 0.23045 
199.435577 0.001056 
199.954086 0.001655 
199.96933 0.00125 
199.99527 0.002812 
200.073898 0.018349 
200.914276 0.003546 
200.952148 0.037101 
200.98822 0.22488 
200.997223 0.017941 
201.016891 0.318713 
201.966827 0.042043 
201.975876 0.009645 
201.992233 0.001465 
202.020584 0.003492 
202.949921 0.004236 
202.989426 0.494543 
203.993347 0.003763 
204.075897 0.003727 
204.236053 0.002158 
204.887482 0.002669 
205.167084 0.005173 
206.874619 0.006544 
208.991379 0.001708 
209.015213 0.003837 
209.531738 0.001551 
209.873764 0.006277 
211.397339 0.002605 
211.577347 0.006659 
214.10878 0.005401 
214.257706 0.001494 
214.950119 0.004916 
215.084595 0.092823 
215.100708 0.009866 
216.157608 0.216137 
216.169739 0.147454 
217.003265 0.007901 
218.998383 0.00646 
219.090149 0.071128 
219.17392 0.443927 
219.97757 0.003698 
220.665207 0.003497 
221.000092 0.019447 
222.898438 0.55463 
223.899628 0.003798 
225.068832 0.03695 
226.071045 0.001532 
226.252899 0.006334 
227.084488 0.058462 
227.935303 0.002717 
228.087738 0.039828 
229.068878 0.004321 
229.080231 0.098991 
229.092056 0.003857 
229.895538 0.183258 
232.616455 0.005887 
233.101898 0.003665 
237.100677 0.00976 
238.894073 0.001311 
239.900879 0.003925 
240.908966 0.663809 
241.910629 0.009597 
242.103928 0.013686 
243.079788 1.225106 
243.094559 0.061023 
243.116608 0.002273 
243.275162 0.007243 
244.082947 0.096611 
244.101166 0.003847 
245.075165 0.013894 
245.492752 0.001963 
246.185272 0.020849 
247.906128 0.06481 
252.850967 0.003786 
257.87326 0.008921 
260.164368 0.068414 
261.105042 0.236059 
261.130524 100.0 
261.20047 0.000958 
262.134033 11.833477 
262.177948 0.013857 
262.214722 0.002264 
262.22934 0.007546 
262.252441 0.103443 
262.379761 0.00507 
263.110168 0.010309 
263.13559 1.626438 
263.175262 0.004404 
263.211395 0.025617 
264.138672 0.028483 
264.176239 0.002541 
264.687927 0.003291 
264.908661 0.075647 
266.924591 0.004075 
267.063416 0.001239 
268.488037 0.007892 
270.302032 0.002258 
271.00415 0.007813 
276.037048 0.002181 
279.89621 0.009025 
281.896606 0.003551 
282.919281 0.03497 
284.743103 0.002188 
END IONS

