BEGIN IONS
TITLE=Scan Number: 3810
PEPMASS=601.34198
CHARGE=0+
COMPOUNDNAME=Desferrioxamine E
LIBRARYQUALITY=3
SMILES=C1CCNC(=O)CCC(=O)N(CCCCCNC(=O)CCC(=O)N(CCCCCNC(=O)CCC(=O)N(CC1)O)O)O
INCHIKEY=NHKCCADZVLTPPO-UHFFFAOYSA-N
INCHI=1S/C27H48N6O9/c34-22-10-14-26(38)32(41)20-8-3-6-18-30-24(36)12-15-27(39)33(42)21-9-2-5-17-29-23(35)11-13-25(37)31(40)19-7-1-4-16-28-22/h40-42H,1-21H2,(H,28,34)(H,29,35)(H,30,36)
MSLEVEL=2
SOURCE_INSTRUMENT=LC-ESI-qTof
FILENAME=f.mice/SC_-Fe_+Fe_YEME_Langzeit_Anfang_2015/160113_CFC_7_w.mzXML;
SEQ=*..*
NOTES=
IONMODE=Positive
ORGANISM=GNPS-LIBRARY
NAME=Desferrioxamine E M+H
SPECTRUMID=CCMSLIB00003739972
ACTIVATION=CID
INSTRUMENT=ion trap
SCANS=3810
56.090187 13.0 
71.890625 28.0 
84.127594 10.0 
85.14373 8.0 
86.153801 16.0 
92.100342 46.0 
96.136406 7.0 
100.092972 16.0 
101.091286 42.0 
101.100067 32.0 
102.151909 90.0 
103.257988 57.0 
104.124855 26.0 
122.141251 335.0 
122.160545 17.0 
123.151711 12.0 
123.166245 27.0 
139.168472 24.0 
144.13031 27.0 
145.828156 9.0 
154.14119 14.0 
154.152039 47.0 
155.156418 18.0 
162.106033 16.0 
165.160721 56.0 
166.155258 223.0 
167.158447 32.0 
168.164627 32.0 
174.115387 22.0 
174.121155 22.0 
177.303925 37.0 
180.967438 27.0 
183.158722 30.0 
183.176453 66.0 
184.194122 25.0 
186.196228 47.0 
194.118195 47.0 
200.742798 6.0 
201.02124 11.0 
201.02742 11.0 
201.19458 898.0 
202.19899 163.0 
204.140442 45.0 
208.133041 20.0 
214.16568 35.0 
219.203781 52.0 
220.200302 7.0 
220.206772 7.0 
224.176239 23.0 
230.223419 14.0 
232.101822 15.0 
234.208267 48.0 
243.212357 367.0 
244.214203 63.0 
246.114456 32.0 
247.211487 14.0 
248.118362 14.0 
249.192261 17.0 
253.184479 27.0 
257.18045 47.0 
258.070312 34.0 
259.074158 32.0 
259.763245 18.0 
260.587128 18.0 
262.161011 11.0 
263.16571 26.0 
263.172791 26.0 
264.065887 53.0 
269.162537 40.0 
269.205505 14.0 
270.209229 14.0 
272.164673 16.0 
274.134399 15.0 
275.190704 9.0 
275.8284 7.0 
278.940277 40.0 
279.195526 18.0 
282.216278 25.0 
283.19989 194.0 
283.368866 9.0 
284.207275 15.0 
287.188354 33.0 
293.15979 35.0 
294.566742 11.0 
296.224915 6.0 
296.232422 6.0 
298.106323 19.0 
298.377716 7.0 
299.18515 36.0 
300.228119 26.0 
300.273499 24.0 
301.227417 290.0 
301.303192 51.0 
301.909698 7.0 
302.198059 63.0 
302.228394 19.0 
302.243591 11.0 
302.304291 18.0 
303.033386 42.0 
303.284271 63.0 
303.527588 7.0 
309.166534 38.0 
311.165527 18.0 
311.19635 16.0 
311.365784 38.0 
313.225067 45.0 
313.348694 75.0 
314.168365 20.0 
316.067017 60.0 
317.706757 20.0 
318.843842 225.0 
319.303925 126.0 
319.327332 36.0 
321.593658 10.0 
322.157593 23.0 
328.156006 12.0 
332.870331 17.0 
338.702026 22.0 
342.157532 14.0 
344.065948 24.0 
347.312653 9.0 
347.337036 16.0 
351.089722 12.0 
351.646179 26.0 
352.0802 42.0 
352.162109 9.0 
354.862579 49.0 
355.315033 35.0 
357.119476 14.0 
357.160736 44.0 
358.118408 13.0 
358.24234 35.0 
358.28363 9.0 
358.597717 16.0 
359.217987 14.0 
359.954773 16.0 
360.203278 9.0 
360.219849 47.0 
360.319275 14.0 
361.181641 38.0 
361.206543 11.0 
361.214844 11.0 
361.322693 762.0 
361.521881 37.0 
361.604889 14.0 
362.020081 21.0 
362.053314 13.0 
362.28595 20.0 
362.327484 84.0 
363.04248 20.0 
363.158936 33.0 
364.849731 6.0 
365.07489 14.0 
365.166656 97.0 
365.700745 10.0 
366.168427 32.0 
366.23526 23.0 
366.419067 9.0 
369.148407 36.0 
370.130402 13.0 
370.180786 5.0 
370.205994 34.0 
371.231476 35.0 
372.249939 21.0 
372.831329 16.0 
373.210754 15.0 
373.33725 48.0 
373.902618 21.0 
374.24881 15.0 
376.202271 14.0 
377.168152 11.0 
378.203217 23.0 
378.288116 7.0 
382.016266 58.0 
382.178406 90.0 
382.20401 42.0 
383.143402 40.0 
383.203217 11.0 
383.237396 9.0 
383.288666 26.0 
383.305756 77.0 
383.425446 14.0 
383.861511 14.0 
384.015503 44.0 
384.118164 25.0 
384.135284 24.0 
384.169495 18.0 
384.220856 18.0 
384.280731 13.0 
384.289307 13.0 
385.008514 17.0 
385.145569 44.0 
385.17984 71.0 
385.394073 10.0 
386.174347 25.0 
386.217255 16.0 
388.15863 13.0 
390.044495 14.0 
391.580688 53.0 
392.272095 25.0 
393.15451 31.0 
393.223755 54.0 
394.072601 33.0 
394.098602 15.0 
394.13327 15.0 
395.165283 11.0 
395.191345 11.0 
396.042297 17.0 
396.146545 22.0 
397.224701 31.0 
397.616333 48.0 
398.182373 10.0 
400.153534 28.0 
400.179749 15.0 
400.205933 27.0 
401.114716 33.0 
401.132202 10.0 
401.307098 1845.0 
401.368317 21.0 
401.412048 20.0 
401.447052 21.0 
401.482025 28.0 
401.622009 38.0 
401.665741 14.0 
401.770752 50.0 
402.322205 688.0 
402.374756 10.0 
403.15451 39.0 
403.312286 115.0 
403.329834 97.0 
403.347382 45.0 
403.584137 21.0 
403.724457 11.0 
403.794647 22.0 
405.050079 78.0 
405.102814 14.0 
406.782776 16.0 
406.826782 11.0 
407.14386 58.0 
408.730988 8.0 
408.801575 11.0 
411.099731 7.0 
411.347595 59.0 
414.185791 56.0 
415.288208 38.0 
416.000244 9.0 
418.24707 18.0 
419.059937 16.0 
419.149292 9.0 
419.30127 33.0 
419.319122 47.0 
419.337006 70.0 
419.426422 21.0 
420.133026 35.0 
420.312012 33.0 
420.338867 27.0 
421.144745 14.0 
421.171631 17.0 
422.229492 18.0 
422.696106 25.0 
423.279694 23.0 
424.079407 17.0 
424.304199 23.0 
425.068909 10.0 
425.167938 59.0 
426.212769 35.0 
426.555328 6.0 
426.564331 6.0 
427.177643 10.0 
428.080414 9.0 
430.069855 15.0 
431.184143 23.0 
432.363403 8.0 
433.462463 22.0 
436.074951 12.0 
436.156982 13.0 
438.174225 46.0 
438.649536 63.0 
438.942169 14.0 
439.097687 17.0 
439.738251 56.0 
439.921356 17.0 
441.195038 21.0 
442.185913 51.0 
442.231812 28.0 
442.663422 7.0 
443.214691 19.0 
443.324982 669.0 
443.563965 13.0 
444.088196 36.0 
444.318237 96.0 
444.355042 44.0 
444.419464 7.0 
445.14682 10.0 
445.340271 21.0 
446.096008 6.0 
446.280457 39.0 
446.289673 39.0 
447.193939 21.0 
449.171753 10.0 
449.236511 11.0 
451.190979 14.0 
452.815216 7.0 
452.824524 7.0 
453.168304 28.0 
453.22403 8.0 
457.294556 13.0 
458.2099 10.0 
459.210358 9.0 
461.186371 52.0 
461.214508 20.0 
462.237 21.0 
463.100891 9.0 
463.166656 21.0 
463.251221 16.0 
463.298218 31.0 
463.636536 7.0 
464.116058 19.0 
464.163086 38.0 
464.210114 30.0 
465.132355 19.0 
465.217072 29.0 
466.102631 9.0 
466.13089 12.0 
467.177673 19.0 
467.564636 19.0 
468.235107 19.0 
469.028931 23.0 
469.378845 10.0 
470.268311 30.0 
470.561829 11.0 
470.684937 33.0 
471.168121 24.0 
472.059265 16.0 
472.192078 14.0 
472.239502 13.0 
473.131683 31.0 
473.179169 16.0 
473.274139 9.0 
473.587585 8.0 
476.098999 11.0 
476.203796 19.0 
476.222839 18.0 
476.613525 9.0 
479.142487 25.0 
479.209381 15.0 
479.24762 42.0 
479.324066 23.0 
480.041199 31.0 
480.098541 44.0 
480.127258 123.0 
480.155945 103.0 
480.232483 25.0 
480.940704 22.0 
481.074738 22.0 
481.103485 54.0 
481.160919 52.0 
481.218384 11.0 
481.247131 23.0 
481.754822 41.0 
481.994385 40.0 
482.080658 43.0 
482.099823 45.0 
482.118988 40.0 
482.147766 28.0 
482.195679 14.0 
482.214874 48.0 
482.253204 64.0 
482.272369 13.0 
482.905334 26.0 
483.087616 110.0 
483.106812 229.0 
483.164368 15.0 
483.231567 55.0 
483.260345 26.0 
483.308319 48.0 
483.34671 39.0 
483.625092 24.0 
483.970795 43.0 
484.038025 25.0 
484.105255 82.0 
484.124481 64.0 
484.162903 55.0 
484.201294 14.0 
484.316589 26.0 
484.345398 41.0 
484.604858 10.0 
485.114319 18.0 
485.248962 50.0 
486.085968 16.0 
486.143707 10.0 
486.162964 22.0 
487.164551 23.0 
487.241638 51.0 
488.196075 10.0 
488.215363 17.0 
488.253967 23.0 
488.282898 33.0 
489.557098 8.0 
492.255707 43.0 
492.759521 16.0 
492.895203 14.0 
494.670441 15.0 
495.165741 24.0 
495.70993 34.0 
496.020966 34.0 
497.82135 40.0 
497.977203 17.0 
498.016174 8.0 
498.327942 17.0 
500.230133 10.0 
500.249664 28.0 
500.532867 30.0 
501.128815 25.0 
501.314514 50.0 
501.334045 145.0 
501.412262 37.0 
501.558899 44.0 
501.940247 13.0 
502.351135 15.0 
503.095032 37.0 
503.114624 22.0 
503.17337 20.0 
503.330078 28.0 
503.9375 14.0 
504.064911 21.0 
504.153137 28.0 
505.065125 36.0 
505.094574 15.0 
505.281006 72.0 
506.223511 33.0 
506.243134 31.0 
507.245514 34.0 
509.824829 10.0 
509.864258 7.0 
510.160004 25.0 
511.146515 21.0 
512.084595 9.0 
512.203125 17.0 
512.351379 12.0 
513.013672 15.0 
513.142212 20.0 
513.221313 30.0 
515.16156 29.0 
516.232239 58.0 
517.234558 8.0 
517.274231 54.0 
518.108643 51.0 
518.307373 37.0 
519.162476 33.0 
520.078003 30.0 
520.187561 32.0 
521.044128 23.0 
521.163696 61.0 
522.300537 43.0 
522.999084 30.0 
523.098938 10.0 
523.188843 29.0 
523.39856 10.0 
523.888062 16.0 
525.077759 16.0 
525.938416 8.0 
526.799744 9.0 
526.809814 9.0 
527.100403 13.0 
528.183472 34.0 
529.137024 40.0 
529.227356 7.0 
530.061279 19.0 
530.191956 16.0 
530.704712 11.0 
530.976318 27.0 
531.086975 13.0 
532.14386 20.0 
532.980042 5.0 
532.990112 5.0 
533.221924 14.0 
534.795715 38.0 
535.644104 43.0 
537.73761 39.0 
538.15271 17.0 
541.266296 32.0 
542.24176 14.0 
542.353638 22.0 
544.03241 25.0 
545.377319 25.0 
546.131958 25.0 
547.234375 23.0 
549.176453 17.0 
551.326965 53.0 
551.429504 23.0 
555.301025 18.0 
555.311279 18.0 
556.114014 28.0 
557.195496 14.0 
557.432556 49.0 
558.236816 10.0 
558.278076 25.0 
558.443115 25.0 
559.186096 14.0 
559.268738 43.0 
560.012329 11.0 
560.105286 7.0 
560.239624 12.0 
560.280945 30.0 
560.363647 19.0 
561.10791 12.0 
561.252686 8.0 
561.90448 17.0 
562.059692 41.0 
562.090759 41.0 
562.266724 25.0 
562.742981 32.0 
563.73761 12.0 
563.955322 9.0 
564.100403 14.0 
564.152283 12.0 
564.245605 109.0 
565.168945 33.0 
565.210449 29.0 
565.272705 118.0 
566.113708 37.0 
566.176025 44.0 
567.111328 12.0 
567.16333 26.0 
567.350525 14.0 
568.088989 15.0 
568.151428 6.0 
568.213867 41.0 
569.140442 37.0 
569.182129 13.0 
570.349182 26.0 
571.694885 20.0 
571.809692 39.0 
576.223511 11.0 
576.234009 11.0 
580.349304 73.0 
580.759521 19.0 
581.18042 26.0 
581.780457 9.0 
582.275513 25.0 
582.602051 60.0 
582.717957 22.0 
583.213379 11.0 
583.244995 16.0 
583.318848 18.0 
583.38208 53.0 
583.403198 23.0 
583.434814 31.0 
583.867249 39.0 
584.109863 31.0 
584.384216 34.0 
584.405334 47.0 
584.426392 34.0 
584.764221 17.0 
585.007019 8.0 
585.249939 18.0 
585.292175 10.0 
585.344971 33.0 
585.429504 27.0 
586.243103 57.0 
586.369934 33.0 
587.110168 43.0 
589.375977 7.0 
589.429016 14.0 
590.012085 10.0 
591.529419 8.0 
593.708008 37.0 
594.325134 11.0 
594.378357 8.0 
594.708374 8.0 
595.049133 16.0 
595.272705 12.0 
595.911987 46.0 
596.551575 8.0 
596.850159 19.0 
596.999451 11.0 
597.255493 12.0 
597.351562 10.0 
597.564941 8.0 
597.75708 13.0 
598.450989 52.0 
599.166809 10.0 
599.626404 8.0 
599.669128 8.0 
599.893616 74.0 
599.936401 24.0 
600.054016 8.0 
600.096802 22.0 
600.16095 54.0 
600.23584 71.0 
600.257202 16.0 
600.267944 16.0 
600.299988 114.0 
600.332092 257.0 
600.406982 33.0 
600.439087 20.0 
600.631653 14.0 
600.685181 17.0 
600.738647 14.0 
600.856384 112.0 
601.091797 60.0 
601.145325 65.0 
601.166748 44.0 
601.188171 53.0 
601.230957 158.0 
601.263062 79.0 
601.284485 85.0 
601.337952 232.0 
601.434326 17042.0 
601.530701 151.0 
601.584229 338.0 
601.616333 101.0 
601.65918 94.0 
601.755554 14.0 
601.78772 28.0 
601.809082 35.0 
601.862671 11.0 
601.894775 54.0 
601.991211 27.0 
602.044739 37.0 
602.109009 15.0 
602.194702 167.0 
602.248291 215.0 
602.30188 91.0 
602.36615 223.0 
602.43042 5308.0 
602.516174 67.0 
602.569763 105.0 
602.591187 12.0 
602.634033 66.0 
602.655518 56.0 
602.687622 25.0 
602.719788 43.0 
602.7948 42.0 
602.869812 69.0 
602.912659 35.0 
602.966248 58.0 
603.041321 70.0 
603.073486 25.0 
603.105652 15.0 
603.159241 8.0 
603.191406 52.0 
603.245056 204.0 
603.266479 206.0 
603.287903 103.0 
603.309387 105.0 
603.330811 89.0 
603.352295 134.0 
603.373718 174.0 
603.438049 1602.0 
603.513123 51.0 
603.684753 63.0 
603.856384 36.0 
603.931458 8.0 
603.963684 10.0 
604.006592 51.0 
604.081726 42.0 
604.113892 23.0 
604.167542 12.0 
604.199707 80.0 
604.221191 99.0 
604.242676 89.0 
604.264099 121.0 
604.307068 43.0 
604.360657 126.0 
604.382141 42.0 
604.414307 105.0 
604.446533 358.0 
604.467957 213.0 
604.58606 17.0 
604.69342 55.0 
604.833008 14.0 
604.886658 29.0 
605.069214 8.0 
605.133667 13.0 
605.198059 63.0 
605.219543 90.0 
605.273254 30.0 
605.294739 47.0 
605.316223 23.0 
605.337708 40.0 
605.380676 160.0 
605.412903 29.0 
605.466614 49.0 
605.78894 36.0 
605.821167 10.0 
606.165039 13.0 
606.455261 8.0 
606.638062 16.0 
606.896118 12.0 
606.960693 11.0 
607.089783 20.0 
607.358643 14.0 
607.638428 16.0 
608.499634 12.0 
608.661194 14.0 
608.833557 8.0 
609.070496 12.0 
609.145935 26.0 
610.914246 13.0 
611.00061 8.0 
611.345947 8.0 
611.443115 18.0 
611.831726 12.0 
612.177368 11.0 
615.909546 11.0 
616.581421 18.0 
616.884949 8.0 
617.893738 8.0 
619.283569 11.0 
622.242065 8.0 
623.353333 48.0 
626.037537 10.0 
627.414551 8.0 
627.873901 12.0 
628.628906 6.0 
648.007324 22.0 
648.385193 9.0 
665.955139 7.0 
667.116028 16.0 
679.235535 9.0 
703.141785 8.0 
706.584045 8.0 
716.996521 12.0 
718.025574 28.0 
722.043579 7.0 
738.192139 22.0 
744.325195 15.0 
750.387878 28.0 
750.758667 7.0 
753.895874 12.0 
762.358032 9.0 
762.587097 10.0 
766.123474 8.0 
772.225586 30.0 
772.953735 22.0 
772.965759 22.0 
776.076111 25.0 
781.216797 24.0 
795.262695 17.0 
799.108459 18.0 
799.157776 10.0 
808.155029 15.0 
810.912476 13.0 
824.519592 17.0 
825.409851 23.0 
832.095825 11.0 
841.390076 41.0 
844.076782 71.0 
852.18811 18.0 
855.798523 80.0 
856.283875 20.0 
856.322205 12.0 
867.151123 16.0 
870.187622 18.0 
870.277771 7.0 
886.008667 21.0 
898.422607 12.0 
923.04541 18.0 
925.195312 7.0 
926.178223 28.0 
935.101074 24.0 
936.196106 11.0 
945.274414 12.0 
958.217102 13.0 
1003.400269 14.0 
1028.110229 24.0 
1033.408203 19.0 
1045.202026 15.0 
1077.772339 7.0 
1082.30603 9.0 
1082.320435 9.0 
1087.309814 43.0 
1088.504883 20.0 
1100.637207 14.0 
1139.263794 65.0 
1142.330811 23.0 
1160.834106 29.0 
1169.477051 23.0 
1171.209473 23.0 
1176.07019 37.0 
1185.596069 23.0 
1221.214478 8.0 
1283.141235 12.0 
1774.743286 14.0 
1981.839478 9.0 
1981.858887 9.0 
1993.497925 6.0 
1993.517334 6.0 
2234.403076 8.0 
2679.922607 7.0 
2751.492432 11.0 
2814.617676 32.0 
END IONS

