BEGIN IONS
PEPMASS=508.29
CHARGE=1+
COMPOUNDNAME=(2E,6E,12E)-18-(2,6-dioxopiperidin-4-yl)-9,11-dihydroxy-8-methoxy-10,12,14-trimethyl-15-oxooctadeca-2,6,12-trienoic acid
LIBRARYQUALITY=3
SMILES=N/A
INCHIKEY=YQDJUXPUIRGKNV-MNOLRWOYSA-N
INCHI=InChI=1S/C27H41NO8/c1-17(21(29)11-9-10-20-15-23(30)28-24(31)16-20)14-18(2)26(34)19(3)27(35)22(36-4)12-7-5-6-8-13-25(32)33/h7-8,12-14,17,19-20,22,26-27,34-35H,5-6,9-11,15-16H2,1-4H3,(H,32,33)(H,28,30,31)/b12-7+,13-8+,18-14+
MSLEVEL=2
SOURCE_INSTRUMENT=N/A-ESI-QFT
FILENAME=library_mgf.mgf
SEQ=*..*
IONMODE=positive
ORGANISM=MONA
NAME=(2E,6E,12E)-18-(2,6-dioxopiperidin-4-yl)-9,11-dihydroxy-8-methoxy-10,12,14-trimethyl-15-oxooctadeca-2,6,12-trienoic acid [M+H]+
PI=MoNA
DATACOLLECTOR=MoNA:VF-NPL-QEHF001659
PUBMED=N/A
SUBMITUSER=mwang87
TAGS=
SPECTRUMID=CCMSLIB00004692722
SCANS=1659
50.327423 0.083549 
50.531281 0.080688 
50.619362 0.106517 
50.620682 0.091961 
51.157894 0.101132 
51.422546 0.1014 
51.536831 0.089616 
51.538361 0.083215 
51.626461 0.069337 
51.848259 0.121975 
51.947891 0.093641 
52.067265 0.06242 
52.318863 0.070208 
53.039349 16.131271 
53.163902 0.105604 
53.539879 0.064224 
53.632347 0.071335 
54.177437 0.051987 
55.017315 0.141379 
55.018604 14.84922 
55.039925 0.07977 
55.054985 20.53278 
55.157303 0.082086 
55.460163 0.062688 
55.955345 0.103171 
56.09584 0.09511 
56.604713 0.084344 
56.618504 0.081302 
56.769268 0.140679 
57.034229 2.88241 
57.327831 0.089286 
57.756687 0.058923 
57.988213 0.093793 
58.616203 0.057542 
58.920784 0.109519 
58.98595 0.137862 
59.194866 0.055827 
59.74501 0.086129 
59.748592 0.094576 
59.765892 0.056464 
60.04512 14.038117 
60.17104 0.072637 
61.555527 0.073836 
61.747635 0.131653 
61.787735 0.12708 
61.878532 0.134677 
61.962585 0.103011 
62.394543 0.095979 
62.987015 0.103305 
63.197643 0.135547 
63.308678 0.088101 
63.331188 0.055187 
63.418114 0.135028 
63.534847 0.085248 
64.476524 0.08313 
64.939377 0.08177 
64.948296 0.056349 
65.039299 2.361654 
65.309784 0.070263 
65.921661 0.091618 
66.888031 0.103722 
66.941483 0.108475 
67.054916 38.809849 
67.473274 0.085117 
67.940849 0.132004 
68.058266 0.159973 
69.034203 8.276945 
69.044968 0.072022 
69.070572 8.823488 
69.139015 0.068186 
69.434715 0.055701 
70.065727 1.267248 
70.978828 0.131458 
71.049828 8.096597 
71.242935 0.06246 
71.521683 0.149949 
71.923424 0.090972 
72.094673 0.110307 
72.346123 0.093261 
72.384972 0.102332 
72.531822 0.148152 
72.726555 0.121242 
73.261292 0.096651 
74.745064 0.115283 
75.224548 0.153922 
75.287094 0.116845 
75.291519 0.092706 
75.822517 0.0894 
76.0326 0.108185 
76.308594 0.084022 
77.039238 0.802992 
77.705582 0.056483 
77.935822 0.120108 
79.054863 33.698418 
79.212914 0.057323 
79.705498 0.08231 
80.05825 0.447622 
80.081306 0.109874 
80.228767 0.102796 
80.370453 0.138847 
80.488205 0.102999 
80.68161 0.121173 
81.006981 0.142219 
81.034103 16.279108 
81.07048 31.789091 
81.92392 0.139515 
82.037346 0.102256 
82.07383 0.819221 
82.150871 0.102568 
82.442596 0.138611 
82.447815 0.077547 
82.488075 0.061322 
82.989143 0.100652 
83.04966 1.271221 
83.086067 7.54042 
83.127777 0.068622 
83.177818 0.086249 
84.070381 0.095133 
84.081284 1.116789 
84.178612 0.09977 
84.579231 0.100039 
85.065407 1.915038 
85.607475 0.11517 
86.024246 0.541738 
87.426414 0.105789 
87.610367 0.084475 
87.813164 0.11497 
88.016251 0.096806 
88.462578 0.103266 
88.499374 0.075248 
89.816521 0.055082 
90.38559 0.094323 
90.741867 0.122865 
90.958717 0.098942 
91.054733 54.539169 
91.227921 0.085465 
91.406853 0.098748 
91.581566 0.156315 
91.962479 0.085891 
92.045334 0.094499 
92.058083 1.624035 
92.062531 2.90975 
92.433945 0.092269 
92.669601 0.111841 
93.033852 0.272731 
93.070374 44.078564 
93.3573 0.089127 
93.643372 0.082186 
94.06562 14.421369 
94.073654 0.84319 
94.078049 0.465003 
94.234779 0.114219 
94.365364 0.127119 
95.049637 56.965843 
95.085983 10.309365 
95.216476 0.102724 
95.926834 0.088921 
96.053017 1.447329 
96.057373 4.495856 
96.081207 0.779859 
96.089264 0.126929 
96.254829 0.056745 
97.028938 0.192586 
97.065247 7.795429 
97.539375 0.11786 
98.880821 0.115239 
99.021858 0.057797 
99.04409 0.077038 
99.725159 0.078359 
99.849602 0.066761 
100.027008 0.115471 
100.543861 0.084951 
100.561951 0.102887 
100.768333 0.064789 
100.77301 0.120202 
102.448822 0.087804 
102.519547 0.049164 
102.735069 0.052107 
103.054634 2.344054 
105.033867 18.825298 
105.045029 1.471266 
105.070251 40.577621 
105.155952 0.087771 
105.517738 0.085277 
106.037613 0.138307 
106.073814 1.829365 
106.078011 4.516001 
106.465469 0.068341 
107.030754 0.080052 
107.049446 8.638964 
107.085884 16.111603 
107.278397 0.079196 
107.380196 0.084995 
108.081085 0.640288 
109.065132 19.235537 
109.101471 17.074986 
110.060349 4.582192 
110.10466 0.247021 
111.080666 1.707989 
112.07605 1.315625 
112.451523 0.14136 
112.465019 0.08734 
112.830917 0.127169 
113.060036 0.973781 
115.054367 0.716642 
115.21347 0.091662 
116.171455 0.147058 
116.578941 0.127544 
116.672005 0.117294 
116.977699 0.144129 
117.070084 9.612787 
117.733727 0.096832 
118.441864 0.07597 
119.049355 2.973693 
119.085739 45.097321 
120.044189 0.116399 
120.089096 1.741856 
120.209854 0.058323 
120.799904 0.111898 
121.028618 18.973007 
121.06498 8.597361 
121.101311 3.825553 
121.134216 0.095051 
121.835182 0.08593 
121.901505 0.136557 
122.060081 1.20741 
122.072784 6.503589 
122.104439 0.148672 
123.04422 70.292847 
123.080559 3.451504 
123.601501 0.093567 
124.047485 2.789351 
126.162315 0.084695 
126.488785 0.134242 
128.056946 0.086473 
128.062164 4.95078 
128.507355 0.100177 
129.009659 0.093389 
129.069931 24.297781 
129.701691 0.091044 
130.072906 0.186038 
130.078339 0.125736 
130.897858 0.091817 
130.990402 0.096282 
131.049194 0.226867 
131.085526 18.062471 
133.064819 29.903858 
133.101196 21.955334 
133.882355 0.112437 
134.067703 0.467112 
134.072769 2.516291 
134.104111 0.13355 
134.109177 2.299359 
134.170868 0.104379 
134.529785 0.12906 
134.825912 0.060391 
135.080414 20.888624 
136.075485 0.284457 
136.083649 0.488894 
136.416641 0.13333 
136.680557 0.098793 
137.059692 12.976778 
137.096268 0.244685 
137.422577 0.119574 
138.054871 1.812099 
138.06308 0.072363 
138.997604 0.152956 
139.03894 1.480185 
139.300415 0.111296 
140.064667 0.138751 
140.070526 56.304695 
140.119492 0.089664 
140.279053 0.086982 
140.443466 0.071367 
140.463074 0.075146 
141.05455 89.767838 
141.069458 0.812158 
141.074371 0.255187 
141.143982 0.085268 
141.908844 0.088555 
142.057922 4.323232 
142.077698 5.526727 
142.089508 0.093313 
143.085571 14.271833 
143.110886 0.070115 
143.901886 0.084718 
144.093323 11.209429 
144.999908 0.126733 
145.064713 2.998641 
145.101196 17.54632 
146.072571 5.217687 
146.104507 0.60426 
147.080399 100.0 
147.116776 1.796667 
147.869827 0.172256 
148.083374 5.765657 
148.088928 2.634258 
149.0961 4.364435 
149.573547 0.129152 
150.868515 0.141762 
153.046707 0.139544 
153.06987 0.518047 
154.086075 4.741408 
155.070221 1.100812 
155.085358 4.493149 
156.093323 1.875408 
157.101196 7.820751 
158.108887 0.105286 
159.080429 3.111865 
159.116745 7.435035 
159.209625 0.090075 
160.088898 0.107358 
161.096069 56.257408 
162.098221 0.863288 
162.104385 4.312271 
164.070541 2.096968 
164.574081 0.097952 
164.643173 0.091229 
164.829391 0.097744 
165.054657 1.722994 
165.827133 0.125344 
166.078247 0.054048 
166.318771 0.093167 
167.08522 0.522118 
167.291473 0.095861 
167.333527 0.066044 
168.093246 2.949748 
169.085648 0.094658 
169.101135 2.338758 
170.035568 0.105852 
171.116592 2.748294 
172.088501 0.187346 
172.095535 0.126352 
172.300873 0.100704 
173.096146 2.052533 
173.132446 1.247052 
175.111679 8.400041 
177.384583 0.090296 
177.500793 0.094448 
178.077896 0.181067 
179.06926 0.095289 
179.085175 0.127005 
180.40686 0.090981 
181.101074 0.805171 
182.10997 0.136336 
182.471146 0.070498 
183.06517 0.944229 
183.116638 1.461852 
185.045013 0.054766 
185.096191 0.634922 
185.132263 0.235445 
185.366837 0.086832 
185.612091 0.08504 
187.11235 0.214571 
188.15387 0.10846 
188.242371 0.143158 
189.127335 0.117238 
191.085052 0.0905 
191.390564 0.101942 
192.292465 0.096389 
192.497421 0.116431 
193.101181 0.844238 
195.116989 0.314361 
196.088654 0.256285 
197.096329 0.098287 
197.132507 0.59711 
199.11171 0.426279 
203.105911 0.546535 
204.543854 0.081628 
204.998718 0.085061 
208.054703 0.095201 
209.767105 0.097374 
210.637756 0.06102 
211.111359 0.147591 
213.127335 0.24991 
214.223083 0.088325 
215.147842 0.062644 
216.310837 0.100818 
218.106293 0.053968 
219.100891 0.118956 
220.326508 0.083704 
220.375626 1.312042 
220.38269 1.205464 
220.410507 0.067757 
225.839447 0.05469 
230.148209 0.095494 
234.199738 0.08132 
238.234467 0.071112 
238.643555 0.092095 
245.213516 0.123677 
247.132797 10.569599 
247.146011 0.136659 
248.136642 0.09888 
250.264725 0.082136 
256.121674 0.055148 
259.35553 0.092352 
263.285675 0.123294 
267.051819 0.151067 
268.136047 0.141935 
278.069122 0.12385 
279.175537 0.054034 
279.86731 0.071568 
283.95166 0.115532 
285.149658 0.101827 
287.237335 0.149443 
288.163605 0.129006 
295.782074 0.056902 
296.395752 0.126239 
298.051392 0.104872 
303.342529 0.12865 
304.332214 0.103311 
304.903534 0.067398 
312.524597 0.112968 
313.490356 0.094755 
316.304108 0.103419 
321.938904 0.128611 
322.451599 0.151299 
325.72345 0.059242 
326.934082 0.098324 
330.295013 0.13508 
332.026825 0.097248 
334.220093 0.075167 
339.831451 0.108888 
345.591003 0.097851 
345.684601 0.072373 
348.443909 0.092987 
350.501129 0.083431 
351.655426 0.167892 
352.822723 0.131273 
357.47702 0.149061 
358.087433 0.139754 
358.498077 0.080148 
362.793396 0.089702 
375.455109 0.077066 
381.748474 0.116929 
386.318207 0.103114 
393.889252 0.063578 
394.948242 0.115582 
404.753754 0.132231 
405.839508 0.078479 
410.930756 0.117576 
411.190948 0.095015 
418.837341 0.117239 
418.940094 0.106507 
423.272583 0.092276 
426.844482 0.095178 
443.008636 0.136903 
446.397308 0.150543 
447.343994 0.352361 
449.861298 0.097521 
451.279266 0.09096 
455.664703 0.095623 
458.529572 0.150765 
459.167358 0.112984 
461.608032 0.112048 
465.46228 0.103913 
466.65387 0.152512 
467.299805 0.056902 
469.404968 0.055677 
478.431061 0.185302 
479.142578 0.124348 
481.949127 0.108096 
486.221619 0.170824 
488.927155 0.068024 
491.731537 0.067804 
497.267242 0.154723 
499.44104 0.121573 
500.107452 0.137667 
511.100647 0.09872 
514.880005 0.138773 
525.771667 0.107309 
528.750488 0.095265 
END IONS

