BEGIN IONS
PEPMASS=284.11
CHARGE=1+
COMPOUNDNAME=Lotaustralin
LIBRARYQUALITY=3
SMILES=N/A
INCHIKEY=WEWBWVMTOYUPHH-GXUZYPEDSA-N
INCHI=InChI=1S/C11H19NO6/c1-3-11(2,5-12)18-10-9(16)8(15)7(14)6(4-13)17-10/h6-10,13-16H,3-4H2,1-2H3/t6-,7-,8+,9-,10+,11?/m1/s1
MSLEVEL=2
SOURCE_INSTRUMENT=N/A-ESI-QFT
FILENAME=library_mgf.mgf
SEQ=*..*
IONMODE=positive
ORGANISM=MONA
NAME=Lotaustralin [M+Na]+
PI=MoNA
DATACOLLECTOR=MoNA:VF-NPL-QEHF007864
PUBMED=N/A
SUBMITUSER=mwang87
TAGS=
SPECTRUMID=CCMSLIB00004698927
SCANS=7864
50.703457 0.003924 
51.969624 0.00976 
52.112267 0.030458 
52.154858 0.022241 
52.226292 0.029773 
52.594231 0.003329 
53.297901 0.003464 
53.399578 0.025089 
53.919079 0.005892 
55.054951 0.036633 
55.258141 0.004702 
56.775906 0.008758 
56.96595 0.029718 
57.034271 0.020187 
57.070583 0.287341 
57.166325 0.017271 
57.727821 0.008063 
58.065857 0.497578 
58.418514 0.027287 
58.519089 0.015309 
59.04982 0.019377 
59.770088 0.009291 
60.081474 0.145886 
60.438839 0.004895 
60.756199 0.004865 
61.011292 0.006544 
61.133984 0.008289 
62.019199 0.022847 
62.060699 0.041501 
62.443863 0.033515 
62.577259 0.030796 
63.017109 0.029637 
63.026985 0.031428 
63.448112 0.004777 
63.689548 0.030285 
63.830608 0.013878 
63.92009 0.034618 
64.509064 0.034398 
64.51844 0.004179 
64.62355 0.033581 
64.640358 0.013904 
64.796829 0.031717 
65.052658 0.005085 
65.465935 0.015497 
65.656525 0.015941 
66.53862 0.030108 
67.054886 0.04719 
67.0774 0.030806 
67.39827 0.031308 
67.83622 0.027919 
69.034081 0.008171 
69.070541 0.105036 
70.054138 0.029961 
70.065666 0.011521 
70.081825 0.029135 
70.563889 0.005141 
71.049736 0.040433 
71.373299 0.014273 
71.443855 0.034789 
71.690994 0.013199 
71.980614 0.008317 
72.393318 0.017631 
73.029076 0.013915 
73.065399 0.189806 
74.035873 0.003643 
74.850761 0.008123 
75.973816 0.005252 
76.519287 0.004916 
77.066681 0.015896 
77.138901 0.010321 
78.014023 0.046923 
78.67244 0.032057 
79.021774 0.0221 
79.054825 0.010721 
79.05719 0.036218 
79.083794 0.030951 
79.205849 0.005539 
80.258842 0.030769 
80.948395 0.014908 
80.970268 0.026055 
81.017731 0.00839 
81.033867 0.005875 
81.070381 0.112871 
83.049858 0.005409 
83.08606 0.122407 
83.217133 0.031248 
83.682594 0.025144 
84.064186 0.014725 
85.028877 0.379437 
85.065269 0.015922 
85.101662 0.055577 
85.802696 0.029909 
86.060539 0.004258 
87.044548 0.062358 
88.07634 0.005158 
89.060242 2.036877 
89.347023 0.035941 
90.063583 0.044628 
91.054611 0.005088 
91.506142 0.034756 
91.840546 0.028797 
93.070282 0.023374 
93.79245 0.033952 
94.309174 0.028527 
94.76606 0.03332 
95.047165 5.827248 
95.085884 0.207564 
96.050552 0.061442 
96.133415 0.010827 
97.02887 0.021876 
97.065262 0.017806 
97.101547 0.047793 
97.231979 0.003745 
98.460434 0.033141 
98.975555 0.032562 
99.044357 0.015311 
99.081001 0.004406 
99.98056 0.015403 
100.075981 0.005314 
100.499969 0.030873 
100.530853 0.003799 
100.991615 0.034066 
101.060074 0.004602 
101.165909 0.029748 
102.198242 0.0037 
103.075485 0.011293 
103.44117 0.044434 
104.745491 0.009652 
105.069801 0.004189 
105.117783 0.004652 
105.409912 0.004981 
105.887558 0.033489 
106.1492 0.018038 
106.76104 0.031766 
107.049431 0.011014 
107.067902 0.025494 
107.070496 0.011649 
107.08577 0.027197 
108.231216 0.027071 
108.931496 0.015597 
109.101425 0.097109 
109.619194 0.008168 
110.071342 0.015642 
110.405891 0.003795 
110.678116 0.027954 
111.080421 0.00967 
111.11721 0.0059 
111.315964 0.00874 
113.609787 0.032605 
113.97126 0.032477 
114.091782 0.004563 
115.567322 0.026884 
116.451378 0.009519 
118.889282 0.038157 
119.085548 0.032227 
119.637245 0.034504 
121.028633 0.075947 
121.064659 0.005791 
121.101158 0.037177 
122.147919 0.032796 
123.080261 0.003649 
123.116943 0.020068 
123.776848 0.014912 
125.605919 0.003732 
126.293701 0.036469 
126.432915 0.009671 
127.038895 0.00598 
130.327454 0.016474 
131.085541 0.006219 
132.774673 0.015905 
133.085907 0.316443 
133.101212 0.021403 
134.089371 0.004937 
134.978638 3.262183 
135.080276 0.005449 
135.117218 0.022373 
137.011597 0.007449 
139.075348 0.00459 
140.127472 0.014771 
143.067566 0.016142 
143.159393 0.004044 
143.880524 0.031991 
144.186813 0.005073 
145.0495 0.043436 
146.996246 0.053477 
147.760284 0.03077 
149.095596 0.006723 
149.132126 0.005802 
151.28418 0.032458 
152.070511 0.012748 
152.989151 2.286953 
153.018021 0.03925 
154.371857 0.032956 
155.021713 0.005906 
155.980316 0.008542 
158.995911 0.004323 
161.11058 0.03537 
162.790543 0.004442 
162.900116 0.032983 
163.14798 0.004488 
164.097382 0.009006 
165.006927 0.3173 
165.955246 0.031201 
170.999329 0.149038 
176.244293 0.01014 
177.126877 0.004388 
179.004868 0.084638 
181.159119 0.004192 
183.017746 0.098202 
185.041901 16.386839 
186.045303 0.992716 
189.350006 0.016943 
190.33168 0.033769 
194.033447 0.032578 
197.01503 0.226346 
200.615875 0.016217 
204.014816 0.010132 
204.414749 0.010062 
206.999924 0.241308 
208.796829 0.038898 
212.052856 1.302276 
215.025116 0.007571 
215.411423 0.274532 
215.423462 0.307333 
215.430618 0.13299 
218.670898 0.025876 
223.893158 0.071788 
224.242538 0.031686 
225.010361 1.255746 
225.890518 0.004624 
239.767166 0.032489 
240.078156 0.007503 
240.231842 0.911108 
241.085571 0.031455 
241.235657 0.010523 
242.057327 0.006308 
243.020248 0.280997 
250.17746 5.011217 
250.617722 0.017505 
251.180878 1.538334 
253.085999 0.005617 
254.247406 0.014899 
254.910049 0.035776 
255.06488 0.020164 
255.101135 0.029721 
257.099152 38.318535 
258.102692 4.126971 
259.104614 0.255012 
260.505219 0.026585 
261.121094 0.005397 
266.999146 0.01326 
268.07254 0.006753 
268.095886 0.016675 
268.226349 0.016389 
268.300262 0.038246 
268.963654 0.009375 
268.97821 0.249821 
268.994537 0.008714 
269.08017 0.053452 
269.978363 0.016063 
270.05011 0.005367 
270.087921 0.036334 
270.218445 0.009175 
270.95755 0.018898 
270.993561 0.050689 
272.367981 0.033491 
274.304535 0.020778 
274.550415 0.032546 
282.204224 0.165019 
282.27887 0.060623 
282.993683 0.445781 
283.03064 0.03291 
283.059998 0.03308 
283.095947 0.225849 
283.113159 0.011984 
283.2034 0.005411 
283.223206 0.047469 
283.262817 1.2644 
283.99408 0.072333 
284.110016 100.0 
284.22052 0.006058 
284.26651 0.150477 
284.302094 0.014612 
284.33075 8.689773 
284.683533 0.005813 
284.991669 0.042535 
285.009277 0.282231 
285.027466 0.131389 
285.0755 0.192624 
285.113495 12.471327 
285.131531 0.163509 
285.165436 0.01911 
285.202667 0.17096 
285.289124 0.059885 
285.33432 1.729816 
285.352112 0.009682 
286.010315 0.030212 
286.027191 0.012585 
286.115173 1.066524 
286.309906 0.772335 
288.967529 0.006454 
296.66153 0.042739 
300.062073 0.007311 
301.058472 0.486069 
302.059387 0.051189 
303.020447 0.009392 
304.17514 0.093958 
305.823883 0.005948 
END IONS

