BEGIN IONS
PEPMASS=289.047
CHARGE=1+
COMPOUNDNAME=Citrinin
LIBRARYQUALITY=3
SMILES=N/A
INCHIKEY=CQIUKKVOEOPUDV-IYSWYEEDSA-N
INCHI=InChI=1S/C13H14O5/c1-5-7(3)18-4-8-9(5)6(2)11(14)10(12(8)15)13(16)17/h4-5,7,15H,1-3H3,(H,16,17)/t5-,7-/m1/s1
MSLEVEL=2
SOURCE_INSTRUMENT=N/A-ESI-QFT
FILENAME=library_mgf.mgf
SEQ=*..*
IONMODE=positive
ORGANISM=MONA
NAME=Citrinin [M+K]+
PI=MoNA
DATACOLLECTOR=MoNA:VF-NPL-QEHF027298
PUBMED=N/A
SUBMITUSER=mwang87
TAGS=
SPECTRUMID=CCMSLIB00004720879
SCANS=27298
51.22525 0.015333 
51.386803 0.010645 
51.876801 0.015103 
51.940289 0.009904 
52.628605 0.007254 
52.801643 0.00881 
53.459961 0.015219 
53.631493 0.01321 
54.25053 0.012377 
54.901012 0.012456 
55.054516 0.64575 
55.113434 0.008675 
55.465725 0.007714 
55.74789 0.008515 
56.965054 1.971694 
56.967583 0.015227 
57.033688 0.012978 
57.070129 6.086144 
57.921497 0.009052 
57.98772 0.012488 
58.065369 1.058886 
58.073505 0.178008 
58.890511 0.011256 
59.005344 0.010473 
59.068775 0.071808 
59.526463 0.011348 
59.842281 0.010431 
60.044636 0.012853 
60.281052 0.008389 
60.602905 0.015416 
60.709911 0.007793 
61.010853 0.676153 
61.140591 0.014134 
62.018665 0.862222 
62.060184 0.173537 
63.10836 0.010371 
63.270008 0.011764 
63.997868 0.065326 
64.195152 0.012714 
64.596634 0.007276 
65.236351 0.013599 
66.610519 0.008081 
66.8218 0.013532 
66.869911 0.013202 
67.054192 0.016896 
67.245483 0.013174 
67.971954 0.008405 
69.069962 0.183926 
70.065147 2.924153 
70.6577 0.014759 
70.980469 0.160797 
71.068619 0.009291 
71.085564 4.965367 
71.160583 0.106367 
71.86541 0.009867 
72.058319 0.011157 
72.080772 0.040863 
72.088898 0.157873 
72.091537 0.007809 
72.512428 0.008409 
73.463493 0.009634 
74.975739 0.040143 
77.444633 0.009558 
79.021187 7.949804 
79.079208 0.007788 
79.452736 0.015258 
80.024498 0.066825 
80.043846 0.009231 
80.483185 0.0166 
81.017006 0.221024 
81.069855 0.066035 
83.075729 0.011256 
83.08548 0.056056 
84.221306 0.010231 
84.959671 1.483958 
85.039604 0.047541 
85.06469 0.025927 
85.09848 0.021989 
85.101158 2.879914 
85.126236 0.008346 
86.059967 0.047564 
86.104523 0.072537 
87.654289 0.015712 
87.889343 0.008279 
88.075668 11.017758 
88.770088 0.011014 
89.059685 0.357524 
89.079033 0.385919 
89.40255 0.008186 
90.414589 0.007894 
90.448341 0.008937 
91.057281 0.011816 
95.085373 0.051547 
97.100952 0.017619 
97.386093 0.009174 
98.470512 0.011879 
98.975327 0.141971 
99.221107 0.008129 
100.271759 0.013792 
100.67659 0.011412 
100.91848 0.017004 
101.066002 0.016167 
102.091331 0.947991 
102.338341 0.009126 
102.78495 0.015813 
102.952553 0.021247 
102.97036 0.060042 
103.278648 0.009912 
103.284676 0.008417 
104.070557 0.028501 
106.086243 27.215261 
106.993584 0.017252 
107.086121 0.016677 
107.089516 1.147184 
107.653313 0.007925 
109.687172 0.015482 
114.643486 0.014416 
115.008186 0.012885 
116.005196 0.010169 
116.985847 0.049739 
117.268494 0.014278 
118.567329 0.00795 
118.762398 0.014771 
119.256561 0.012023 
119.2752 0.015477 
120.136917 0.014893 
121.089851 0.017718 
121.842461 0.016847 
123.689301 0.009447 
125.244339 0.008587 
131.085571 0.013443 
131.090271 0.013976 
134.978653 2.072269 
135.07991 0.015461 
136.974457 0.012349 
137.011581 0.444423 
137.059738 0.14224 
137.954132 0.023619 
138.287262 0.012147 
138.468033 0.008263 
138.972519 0.007572 
139.009232 0.017822 
139.851807 0.015529 
140.638229 0.010946 
141.632324 0.014109 
142.763229 0.011107 
144.997971 0.008084 
145.028534 0.053927 
145.06427 0.01579 
145.100143 0.014986 
146.072479 0.222419 
146.86734 0.008354 
147.044052 0.024418 
147.117416 0.015758 
147.156601 0.014828 
149.095444 0.010616 
149.781952 0.016559 
150.352371 0.014078 
151.351776 0.011075 
151.688385 0.01491 
152.951752 0.261565 
152.989212 1.364636 
153.949127 0.087786 
153.992844 0.014706 
154.476868 0.008264 
154.946747 0.095097 
154.985184 0.012708 
155.022278 0.055649 
155.964432 0.015857 
157.02507 0.014811 
158.031586 0.012625 
159.080048 0.010884 
159.263031 0.011599 
161.059509 0.144578 
163.075195 0.13007 
164.512497 0.009707 
165.089951 0.013942 
165.983246 0.011625 
166.383408 0.012209 
166.490524 0.010384 
168.681808 0.010149 
169.016129 0.017974 
170.963196 0.191932 
171.000351 0.024751 
171.080429 0.0459 
171.960236 0.008988 
172.034164 0.012674 
175.003723 0.008259 
175.075317 0.164323 
176.08284 0.011526 
176.989059 0.065236 
177.054657 0.222886 
177.090973 0.248674 
178.098648 0.016609 
179.106659 0.071697 
180.009552 0.04618 
180.455429 0.009856 
183.948181 0.009017 
186.043945 0.070381 
187.027222 0.037432 
188.973846 0.076253 
189.090912 0.289727 
190.158844 0.041909 
190.326447 0.009944 
190.549973 0.017158 
191.000366 0.009155 
191.070831 0.016242 
191.161728 0.015374 
192.262329 0.013591 
193.070267 0.014469 
194.999207 0.152021 
195.049072 0.035794 
196.645584 0.074219 
197.014984 1.953915 
197.974228 0.089006 
198.018097 0.188272 
198.061874 0.176115 
198.079254 0.011673 
198.563492 0.019995 
199.012085 0.120867 
199.051178 0.041681 
199.555588 0.155779 
200.059082 0.031396 
201.043167 0.01674 
201.802414 0.013304 
205.015686 0.068573 
205.085358 0.025171 
205.650757 0.329915 
206.153259 0.012794 
206.977554 0.026879 
207.031479 0.02919 
207.040253 0.121178 
207.049393 0.055677 
207.06694 0.919683 
207.101471 0.259342 
207.550507 0.02096 
207.568802 0.138431 
208.046799 0.010452 
208.05661 0.098518 
208.105865 0.01231 
209.540863 0.168976 
211.070221 0.055229 
212.015778 0.029507 
212.992416 0.071829 
213.00708 0.081465 
213.067307 0.192548 
214.056305 0.015605 
214.078278 0.01353 
214.65593 0.281917 
215.001129 0.0193 
215.025665 0.339364 
215.037048 0.028287 
215.066605 0.010316 
215.409897 0.234029 
215.42337 0.168134 
215.569458 0.014222 
216.028839 0.013267 
216.045105 1.398591 
216.072372 0.281694 
216.091415 0.012263 
216.546829 0.271717 
217.05304 0.01808 
217.735138 0.01988 
218.042526 0.195778 
218.54628 0.310663 
218.99498 0.016602 
219.049973 0.009199 
219.067352 0.020648 
219.100616 0.014438 
219.174454 0.182282 
220.074936 1.040751 
220.551529 0.130663 
220.576645 0.143397 
221.063904 0.13347 
221.08252 0.011833 
221.566132 0.015209 
221.663651 0.068489 
222.072296 0.466693 
222.57373 0.104702 
223.025955 0.02541 
223.052567 0.037739 
223.072052 0.06357 
224.060547 0.011293 
225.005646 0.447865 
225.05101 2.848077 
225.552078 0.588042 
226.047928 0.075242 
226.074341 0.018852 
226.577423 0.016082 
227.569214 0.015869 
228.072647 0.654431 
228.106842 0.524792 
228.13945 0.018337 
228.574554 0.076969 
229.002045 0.012592 
229.038879 0.032488 
229.052948 0.199311 
229.081039 1.880637 
229.102585 1.043656 
229.556778 0.632985 
229.581802 0.427986 
230.024704 0.51991 
230.060181 0.382247 
230.087463 0.033408 
230.562424 0.015821 
230.669891 0.01696 
230.966644 0.724468 
231.016113 0.009097 
231.052856 0.094743 
231.730423 0.009376 
232.058075 0.062029 
232.562271 0.027111 
233.008408 0.015102 
233.08078 0.397912 
234.087341 0.008489 
235.026688 0.080035 
235.051971 0.028241 
235.064178 0.201418 
235.07959 0.206784 
235.581482 0.127112 
236.059616 0.059806 
236.070572 0.035184 
236.898026 0.010252 
237.005371 0.466154 
237.042969 0.065975 
237.067825 0.386058 
237.078735 0.362731 
237.570282 0.022285 
237.580292 0.040983 
238.058502 0.408021 
238.085297 0.255662 
238.562119 0.70833 
238.587463 0.015763 
239.040375 0.013568 
239.065979 0.569514 
239.567078 0.019774 
240.189651 0.01189 
240.576218 0.013376 
241.071732 0.351366 
241.573608 0.040821 
243.067947 0.021252 
243.38382 0.008324 
244.004944 0.0186 
244.057495 0.047339 
244.263229 0.330419 
245.048859 0.694882 
245.065964 0.490129 
245.094208 0.022908 
245.115677 0.012411 
245.568527 0.059817 
246.055573 0.062387 
246.073624 0.42106 
247.083267 0.171675 
247.112244 0.009611 
248.035248 2.481598 
248.087524 0.403566 
248.58905 0.249727 
248.977417 0.085751 
249.043289 0.949368 
249.068558 0.154557 
249.087067 0.072879 
249.587341 0.013459 
250.07634 1.349964 
250.578156 0.321056 
251.021622 0.278138 
251.058777 0.080513 
251.083817 0.011887 
251.569092 0.017185 
252.03067 0.071583 
252.074387 0.039681 
253.036911 0.081087 
253.074341 0.825832 
257.135712 2.0848 
258.073608 0.646956 
258.139191 0.145477 
258.575562 0.068142 
259.081665 4.376156 
259.114594 1.040075 
259.569702 0.016183 
259.583191 1.23349 
260.089142 0.283413 
261.091064 0.164571 
261.126099 0.02717 
262.014221 0.029721 
262.050079 0.015584 
262.0979 0.102243 
263.058655 17.837812 
263.106018 0.033316 
264.062073 2.22032 
265.038177 0.01062 
265.091919 0.253118 
266.045563 0.833215 
266.090363 0.072623 
267.053619 1.850556 
267.078979 0.233925 
267.582031 0.015159 
268.057312 0.065742 
268.086823 0.036376 
269.069092 0.045341 
269.302887 0.02963 
270.112854 0.033613 
270.278778 4.284743 
271.083923 0.079486 
271.282257 0.760132 
272.096924 0.419428 
272.127838 0.068757 
272.520569 0.009458 
273.076202 0.015673 
273.092316 1.108796 
273.831665 0.01702 
274.097931 0.137435 
275.071106 0.023537 
275.105804 0.31107 
276.020142 0.02653 
276.077728 0.215673 
276.113983 0.010281 
277.037415 0.074347 
277.07489 0.015341 
279.053894 0.065656 
279.986542 0.013172 
281.033905 0.973632 
281.069214 65.228325 
281.525024 0.019779 
282.072693 8.510278 
283.048828 0.013593 
283.074677 0.591083 
283.101715 0.012509 
285.064148 0.190943 
287.07019 0.696936 
287.089478 0.085684 
287.106384 1.24605 
287.145905 0.563943 
287.163788 0.191913 
287.182129 0.392852 
287.31366 1.116205 
288.077759 1.458459 
288.111908 1.096879 
288.148743 0.052864 
288.230988 0.061563 
288.289246 100.0 
289.019989 0.03946 
289.049896 0.1195 
289.086029 4.893192 
289.123169 8.183413 
289.142181 0.016684 
289.16156 2.695717 
289.178467 0.016928 
289.292725 19.634378 
290.056213 0.133876 
290.092194 3.194894 
290.10733 0.986145 
290.127258 1.891144 
290.164398 0.142025 
290.194336 0.011221 
290.211212 1.042115 
290.2276 0.011247 
290.232025 0.011085 
290.247406 0.983913 
290.266571 0.032044 
290.283081 1.192299 
290.296539 1.358251 
291.065979 0.887915 
291.101593 13.709427 
291.140656 6.527622 
291.286774 0.03112 
293.153839 0.06106 
294.995178 0.011754 
295.048676 0.284241 
295.084808 1.129217 
296.089417 0.028734 
297.064331 0.017557 
297.252045 0.010109 
299.042816 0.736287 
299.079773 17.952732 
300.083374 2.225492 
300.146027 0.025068 
301.085968 0.114247 
304.084686 0.063164 
305.031769 0.010134 
305.115814 0.0152 
307.029938 0.528301 
307.049011 0.837795 
307.084351 0.067737 
307.102234 0.018712 
307.132416 0.02603 
308.032074 0.019706 
309.038483 0.021891 
313.059082 0.249108 
313.095367 0.316931 
313.368378 0.009747 
END IONS

