BEGIN IONS
PEPMASS=176.103
CHARGE=1+
COMPOUNDNAME=L-citrulline
LIBRARYQUALITY=3
SMILES=N/A
INCHIKEY=RHGKLRLOHDJJDR-BYPYZUCNSA-N
INCHI=InChI=1S/C6H13N3O3/c7-4(5(10)11)2-1-3-9-6(8)12/h4H,1-3,7H2,(H,10,11)(H3,8,9,12)/t4-/m0/s1
MSLEVEL=2
SOURCE_INSTRUMENT=N/A-ESI-QFT
FILENAME=library_mgf.mgf
SEQ=*..*
IONMODE=positive
ORGANISM=MONA
NAME=L-citrulline [M+H]+
PI=MoNA
DATACOLLECTOR=MoNA:VF-NPL-QEHF000507
PUBMED=N/A
SUBMITUSER=mwang87
TAGS=
SPECTRUMID=CCMSLIB00004691570
SCANS=507
51.267326 0.024546 
51.569973 0.029497 
51.81847 0.030147 
52.765114 0.016046 
54.2211 0.007791 
54.426426 0.016404 
54.790352 0.018587 
54.974449 0.023344 
56.630959 0.013443 
56.965576 0.007511 
56.991016 0.023597 
57.007141 0.029071 
57.4412 0.011149 
58.46508 0.010232 
59.027401 0.019846 
59.820614 0.00682 
61.346401 0.024957 
61.363586 0.009189 
61.979671 0.023781 
63.523083 0.031287 
64.361168 0.025906 
64.417763 0.056024 
64.41951 0.044496 
64.419846 0.042995 
64.959099 0.011809 
65.549438 0.025775 
66.647003 0.024064 
66.88031 0.021483 
68.05024 0.188155 
68.114899 0.011465 
68.179871 0.008758 
68.293579 0.008031 
68.757912 0.010018 
69.03418 0.024763 
69.695992 0.024759 
69.904396 0.020211 
69.905647 0.038011 
70.065842 99.088371 
70.227119 0.030531 
71.049828 0.244898 
71.062897 0.220207 
71.069176 4.081924 
71.071762 0.039709 
72.813034 0.024428 
74.024353 0.009642 
77.044922 0.022391 
78.662621 0.015118 
80.401199 0.027076 
80.60495 0.012769 
81.250984 0.007451 
84.045059 0.12079 
85.137558 0.011862 
85.368813 0.019875 
86.004341 0.011772 
86.060646 2.303663 
87.092285 0.447293 
88.076187 0.202337 
88.266365 0.007581 
89.257195 0.026002 
89.869904 0.027111 
90.508659 0.028196 
91.213554 0.025682 
91.80584 0.007518 
91.942421 0.006455 
93.049904 0.019189 
94.143906 0.008001 
96.044861 0.879062 
96.210327 0.00756 
97.076469 1.668938 
97.929817 0.007144 
98.060524 0.255364 
98.921227 0.008959 
98.9758 1.376917 
99.044426 0.050423 
99.488609 0.056777 
100.029228 0.035205 
101.418388 0.009721 
101.680939 0.067933 
101.684196 0.066249 
101.689774 0.008063 
102.1772 0.029263 
102.478783 0.030682 
105.083633 0.009739 
105.657196 0.030703 
107.000351 0.405241 
107.444443 0.012989 
108.493858 0.581612 
112.60025 0.01053 
112.739021 0.015677 
112.743187 0.031898 
113.071274 100.0 
113.400917 0.027101 
113.404434 0.010578 
113.731056 0.019659 
114.055252 16.879042 
114.068153 0.582437 
114.074585 5.376706 
115.058601 0.858966 
115.086891 14.398591 
116.005547 1.700241 
116.070908 13.002325 
116.083794 0.031326 
116.090218 0.809126 
116.374466 0.014936 
116.986183 0.445455 
117.00341 0.05241 
117.074257 0.732423 
117.499077 0.077821 
119.049606 0.007732 
120.958282 0.008083 
122.677223 0.008842 
123.013481 0.007357 
125.010536 0.072941 
125.089592 0.00853 
127.95031 0.024237 
128.400574 0.025686 
129.675613 0.010133 
130.09758 0.147629 
131.081528 0.043361 
132.958313 0.076478 
133.097244 0.245306 
134.996674 0.013814 
135.856766 0.018326 
137.627975 0.008462 
138.330185 0.01785 
139.460831 0.007818 
141.065948 1.907768 
142.049957 1.806159 
144.12854 0.017789 
146.90416 0.00883 
150.968842 0.010251 
154.277771 0.017651 
156.644012 0.013799 
159.076477 44.473236 
160.073196 0.2656 
160.079803 3.027362 
162.471359 0.019702 
163.665451 0.018825 
165.080322 0.007503 
166.183517 0.029461 
167.977158 0.027869 
169.472794 0.018522 
169.94751 0.018301 
172.698685 0.016727 
172.864624 0.026302 
175.896179 0.017173 
176.103348 0.114862 
180.378677 0.009679 
181.429398 0.008093 
181.713181 0.008955 
183.288147 0.010349 
184.425735 0.030393 
188.573608 0.007482 
189.012589 0.009756 
190.847626 0.027135 
195.842575 0.008179 
END IONS

