BEGIN IONS
TITLE=Scan Number: 14487
PEPMASS=507.41599
CHARGE=0+
COMPOUNDNAME=Valactamide A putative
LIBRARYQUALITY=3
SMILES=CC(C(NC1=O)C(NC(C(OC(CCC(C)CC(C)CC(C)CC(C)/C=C1\C)C)=O)C(C)CC)=O)C
INCHIKEY=YHHLNGAZCXMCEW-JJIBRWJFSA-N
INCHI=
MSLEVEL=2
SOURCE_INSTRUMENT=LC-ESI-Orbitrap
FILENAME=f.MSV000081097/ccms_peak/GNPS_Aspergillus_terreus_1.mzML;
SEQ=*..*
NOTES=
IONMODE=Positive
ORGANISM=GNPS-LIBRARY
NAME=Valactamide A putative  M+H
SPECTRUMID=CCMSLIB00005435762
ACTIVATION=CID
INSTRUMENT=ion trap
SCANS=14487
53.394173 20538.734375 
54.349136 15283.116211 
55.055202 80559.570312 
57.070827 85881.671875 
59.050056 15073.62207 
61.101627 13748.826172 
62.664242 15663.203125 
65.268646 13470.87793 
67.055206 38043.542969 
69.070679 481378.8125 
69.1968 13444.300781 
71.086487 23400.228516 
72.081551 783116.6875 
75.680153 13146.542969 
77.43766 16301.445312 
78.008308 16138.618164 
81.070587 239241.203125 
83.086235 248856.46875 
85.065582 25245.298828 
85.10173 18031.185547 
86.097092 2156139.75 
87.100594 36298.808594 
90.235321 16790.714844 
92.765968 20020.980469 
93.070396 59443.414062 
95.086113 612255.9375 
97.065399 15215.741211 
97.101715 207285.1875 
99.081017 22615.650391 
102.780563 14336.423828 
105.070518 19464.875 
107.085884 124801.992188 
109.065392 15161.513672 
109.101646 644834.3125 
111.081108 73008.867188 
111.117348 142444.171875 
112.076256 23238.734375 
113.096634 17561.185547 
119.086113 67206.976562 
121.101593 288903.625 
123.117157 1424243.875 
124.120331 54808.199219 
125.096474 217354.84375 
125.132957 79487.929688 
127.112144 22425.859375 
132.102097 1100294.375 
133.101532 111912.398438 
135.117096 276957.6875 
137.096313 40925.722656 
137.132614 622886.5 
138.135971 26955.421875 
139.070328 20378.601562 
139.111816 129379.4375 
139.148453 21237.585938 
140.143768 70641.859375 
141.127594 21391.382812 
147.117203 30994.230469 
149.132614 285888.53125 
151.112 33889.8125 
151.148392 433345.4375 
152.151657 26519.330078 
153.127579 150557.671875 
156.444427 17813.294922 
161.132706 138659.171875 
163.148285 427497.28125 
164.151993 17835.664062 
165.128052 40446.222656 
165.163986 245509.0 
166.123413 27916.845703 
167.143005 31892.974609 
168.13829 26092.566406 
175.148254 212100.703125 
176.15184 20788.189453 
177.163925 246763.046875 
179.14328 247948.046875 
179.179886 71550.617188 
180.146027 18176.556641 
181.159485 77983.585938 
182.682938 15576.432617 
185.164902 32301.494141 
186.149033 463564.0625 
189.163879 263518.53125 
191.179825 91411.484375 
193.158844 113660.640625 
193.195618 24099.056641 
195.175125 34680.910156 
197.154221 19305.078125 
203.179901 219949.953125 
204.18306 17974.267578 
205.195114 21689.898438 
207.17482 38665.128906 
217.195648 33216.601562 
219.211182 88221.164062 
221.190201 225043.109375 
221.226791 160931.96875 
248.548706 16944.875 
249.25769 195613.0625 
257.456543 24184.882812 
259.242371 1084167.5 
259.301941 15493.991211 
260.245941 100197.140625 
265.023682 19254.763672 
277.252869 2107291.25 
278.255981 245792.96875 
294.280121 35363.769531 
295.264526 26053.533203 
340.5177 25404.345703 
348.325897 2732069.0 
349.329651 369994.125 
366.336639 379339.375 
367.341309 64839.992188 
376.321136 701471.625 
377.32489 115324.851562 
394.332245 642475.0625 
395.335876 110985.359375 
402.365997 18659.148438 
407.363403 30502.005859 
411.401215 17834.414062 
479.423676 30330.298828 
483.067902 20104.193359 
END IONS

