BEGIN IONS
PEPMASS=1893.57
CHARGE=1+
COMPOUNDNAME=Teichomycin
LIBRARYQUALITY=3
SMILES=N/A
INCHIKEY=BJNLLBUOHPVGFT-QRZIFLFXSA-N
INCHI=InChI=1S/C88H97Cl2N9O33/c1-3-4-5-6-7-8-9-10-60(108)94-68-74(113)71(110)58(32-101)129-87(68)132-78-55-26-40-27-56(78)126-52-18-14-38(24-47(52)90)77(131-86-67(92-34(2)103)73(112)70(109)57(31-100)128-86)69-84(121)98-66(85(122)123)45-29-42(105)30-54(127-88-76(115)75(114)72(111)59(33-102)130-88)61(45)44-23-37(13-15-49(44)106)63(81(118)99-69)96-83(120)65(40)97-82(119)64-39-21-41(104)28-43(22-39)124-53-25-36(12-16-50(53)107)62(91)80(117)93-48(79(116)95-64)20-35-11-17-51(125-55)46(89)19-35/h11-19,21-30,48,57-59,62-77,86-88,100-102,104-107,109-115H,3-10,20,31-33,91H2,1-2H3,(H,92,103)(H,93,117)(H,94,108)(H,95,116)(H,96,120)(H,97,119)(H,98,121)(H,99,118)(H,122,123)/t48-,57-,58-,59-,62-,63-,64+,65-,66-,67-,68-,69+,70-,71-,72-,73-,74-,75+,76+,77-,86+,87+,88+/m1/s1
MSLEVEL=2
SOURCE_INSTRUMENT=N/A-ESI-QFT
FILENAME=library_mgf.mgf
SEQ=*..*
IONMODE=positive
ORGANISM=MONA
NAME=Teichomycin [M+NH4]+
PI=MoNA
DATACOLLECTOR=MoNA:VF-NPL-QEHF027958
PUBMED=N/A
SUBMITUSER=mwang87
TAGS=
SPECTRUMID=CCMSLIB00004721539
SCANS=27958
131.085983 0.021487 
131.385132 0.007613 
132.031555 0.016561 
135.116486 0.082611 
135.122391 0.010443 
137.132401 0.915071 
138.054886 70.17041 
139.052521 0.262524 
139.058167 4.952568 
139.063629 0.027867 
140.060028 0.048546 
140.070496 0.067235 
141.069717 0.053584 
144.05484 0.027435 
144.065414 100.0 
144.165466 0.013746 
145.062698 0.328711 
145.068695 6.600931 
146.069855 0.356955 
147.091293 0.040265 
149.044922 0.011234 
149.13237 0.029128 
149.500443 0.010028 
149.964966 0.012829 
150.055679 0.01623 
150.706482 0.014178 
151.147949 0.195965 
152.136826 0.010404 
154.306778 0.01424 
155.142929 0.063767 
155.289047 0.013588 
158.797775 0.007938 
158.871231 0.01879 
159.349365 0.008314 
159.634949 0.018808 
162.07579 0.891465 
166.438782 0.013389 
167.055084 0.103058 
167.143372 0.009365 
168.065353 12.594112 
169.068909 0.684444 
170.319092 0.010971 
172.169373 1.443648 
178.566254 0.01447 
182.739151 0.01773 
185.060425 0.011841 
186.075851 9.121046 
186.185089 0.745497 
187.079269 0.621631 
187.537033 0.016429 
197.059448 0.937189 
198.873184 0.017161 
204.086487 11.688131 
204.09726 0.152854 
205.089859 0.90684 
205.67424 0.011799 
207.107162 0.013042 
208.058945 0.018506 
212.070389 0.141138 
213.05426 0.723527 
214.085754 0.206532 
215.069916 2.906674 
216.073456 0.204385 
224.070358 0.223158 
225.042725 0.109136 
225.054108 0.125581 
227.070068 0.165657 
227.867996 0.012594 
229.890915 0.008124 
230.080002 0.016515 
236.164108 0.28168 
238.049774 0.12495 
238.179886 1.909798 
239.081543 0.250214 
239.094437 0.071014 
239.183105 0.223175 
239.808655 0.01812 
240.065308 4.424081 
240.08667 0.06013 
241.049057 0.054597 
241.069 0.505035 
241.096573 0.612461 
242.080887 11.270702 
242.094894 0.149096 
243.084229 1.564776 
244.08728 0.025552 
245.074341 0.013506 
245.846466 0.014875 
247.335236 0.012106 
248.164124 1.172708 
249.168304 0.031399 
250.179886 20.16843 
251.183289 3.875033 
252.065125 0.440259 
252.196091 1.005437 
253.04924 0.55869 
253.19873 0.010939 
254.080582 0.027926 
254.675079 0.01128 
255.075943 0.013822 
255.524918 0.011334 
257.091705 3.070128 
257.595306 0.009387 
258.07605 0.035129 
258.095093 0.277098 
259.107605 1.401711 
260.110596 0.065685 
262.179626 0.495514 
262.924164 0.0205 
263.183777 0.011057 
264.195557 11.716394 
264.211884 0.145599 
265.198883 1.357343 
268.06012 1.050737 
268.076508 0.013083 
269.044312 0.040721 
269.066284 0.116016 
269.091858 0.037751 
270.075653 0.207615 
271.059937 0.009397 
280.059326 0.128 
280.190247 0.998949 
280.438171 0.01317 
281.091187 0.022432 
281.193787 0.050082 
282.075562 0.10621 
283.070038 0.02163 
285.009125 0.06274 
285.086548 2.399828 
286.070618 1.651173 
286.088074 0.270183 
287.07373 0.112343 
294.20575 0.30267 
294.465698 0.013685 
295.070892 0.101272 
296.054504 0.056551 
296.185181 0.220588 
297.086975 0.205611 
298.200958 4.62447 
299.061554 0.099505 
299.102051 0.880403 
299.204132 0.978321 
303.097046 10.11539 
304.100769 1.548285 
304.16449 0.023294 
304.189697 0.092479 
305.103485 0.012551 
308.054565 0.223695 
309.058319 0.013186 
311.065186 0.034801 
312.216309 1.898672 
313.082428 0.019183 
313.219757 0.094688 
314.065247 0.356743 
314.336609 0.013258 
315.049377 0.032529 
316.211304 1.603079 
317.214813 0.176 
324.07486 0.012783 
324.097565 0.300592 
325.081055 0.207585 
329.076416 11.442231 
329.098785 0.197884 
330.079742 1.919167 
330.226837 0.356329 
331.082367 0.06139 
332.075165 0.047984 
338.110138 0.657717 
339.114136 0.024162 
342.085846 0.016125 
342.107788 0.840618 
343.091675 1.001608 
344.095306 0.061196 
349.079712 0.102112 
356.205475 0.022466 
356.809937 0.012895 
360.118439 1.691086 
361.121185 0.200082 
365.073547 0.363948 
366.079559 0.059718 
366.105499 1.450633 
367.086029 0.030722 
367.109344 0.13329 
369.28186 0.016971 
382.100494 0.224513 
385.523621 0.007728 
393.067932 0.040972 
410.095154 0.146899 
443.140656 0.06312 
444.144226 0.018889 
447.345825 0.023465 
467.610474 0.008159 
477.037781 0.018079 
482.065277 0.013947 
500.16156 0.036716 
528.157593 0.131762 
531.889343 0.01639 
557.165894 0.014708 
563.698364 0.015575 
572.393616 0.116999 
582.429138 0.009047 
584.389404 0.029812 
590.403015 0.16164 
591.408936 0.010665 
653.962158 0.00886 
679.10083 0.021413 
680.111938 0.012628 
680.686401 0.015217 
687.141846 0.016426 
691.096375 0.088797 
691.461975 0.016093 
692.10675 0.01927 
692.888611 0.012331 
693.083374 0.036373 
695.109619 0.017839 
704.098755 0.041003 
705.071228 0.020878 
706.110291 0.846725 
706.171387 0.013744 
707.113159 0.134248 
708.111084 0.586488 
709.113892 0.11587 
710.110107 0.220536 
711.112061 0.008074 
712.109924 0.019508 
712.567566 0.019015 
713.540222 0.019904 
713.711243 0.070987 
713.794983 0.026729 
713.841553 0.041809 
713.898987 0.104759 
713.951172 0.082045 
714.904236 0.010468 
716.09436 0.169829 
717.09259 0.028346 
718.10083 0.157166 
719.088562 0.081209 
720.107056 0.064834 
721.124146 0.158783 
722.107727 0.182404 
723.132996 0.259429 
724.127686 0.051073 
725.133179 0.116687 
731.116272 0.014105 
732.091064 0.197692 
733.112976 0.181489 
734.107178 1.086664 
735.113037 0.452555 
736.105469 0.704624 
737.115723 0.169652 
738.102051 0.854696 
739.107178 0.215978 
740.100647 0.295072 
742.07373 0.008903 
744.088074 0.141147 
745.081116 0.015072 
746.091431 0.156108 
747.080444 0.014771 
748.09314 0.01475 
749.115784 0.499491 
750.107544 0.34462 
751.133728 1.661415 
752.127075 0.652684 
753.130798 1.003202 
754.130615 0.238427 
755.127441 0.091041 
759.101624 0.101866 
760.086975 0.229244 
761.110046 0.641809 
762.100159 0.796027 
763.118164 0.823382 
764.103577 0.239891 
765.123413 0.276586 
766.094788 0.164354 
767.121338 0.164055 
768.103455 0.012432 
769.12384 0.009892 
777.114258 1.956819 
778.11554 1.033377 
779.117065 2.012419 
780.114929 0.846134 
781.11908 0.795505 
782.120117 0.154367 
783.122314 0.282122 
784.120239 0.055521 
785.123535 0.133151 
786.120056 0.012803 
787.095093 0.232153 
788.082458 0.251014 
789.112793 1.319269 
790.105408 0.678699 
791.108765 0.987329 
792.103577 0.363243 
793.104431 0.170247 
794.127502 0.03717 
795.12262 0.133874 
796.14325 0.068246 
797.127869 0.080506 
798.134644 0.008058 
801.109314 0.015605 
802.123596 0.022925 
804.12384 0.099315 
805.106934 2.274959 
806.114502 1.162881 
807.106934 2.143234 
808.112854 0.931312 
809.104065 0.637247 
810.103516 0.101516 
815.088257 0.013855 
816.110291 0.02063 
817.090271 0.028005 
818.125549 0.136887 
819.120972 0.124097 
820.129395 0.176253 
821.130432 0.057754 
822.131348 0.279764 
823.120605 0.105704 
824.126526 0.139721 
825.107117 0.017661 
831.09845 0.021151 
832.116333 0.951408 
832.462952 0.019659 
833.105347 1.847991 
834.11084 1.596967 
835.10144 1.660911 
836.104431 0.762798 
837.100647 0.398435 
838.097961 0.060413 
844.834595 0.014845 
846.119568 0.027142 
847.12262 0.044582 
848.12323 0.080134 
849.061707 0.101956 
849.133972 0.021867 
850.128723 0.943937 
850.211426 0.02681 
851.055176 0.064373 
851.127441 0.432259 
852.12677 0.986753 
853.120178 0.473519 
854.120178 0.256375 
855.119568 0.040628 
862.120361 0.042508 
863.129517 0.024763 
864.126465 0.024926 
865.129944 0.016725 
866.080872 0.009722 
867.077637 0.050145 
868.080872 0.036573 
869.080444 0.030319 
877.117065 0.025586 
895.784912 0.020749 
906.165527 0.009227 
919.125122 0.022443 
928.144531 0.056723 
929.145508 0.015955 
930.149658 0.111607 
931.157715 0.026121 
932.165161 0.031953 
933.163147 0.019172 
941.14563 0.045512 
942.148132 0.08421 
943.156677 0.01399 
945.153503 0.043693 
946.153442 0.052201 
947.16217 0.18908 
948.153198 0.118867 
949.16864 0.048239 
950.163147 0.018188 
955.154358 0.010117 
956.136536 0.308021 
957.153015 0.528733 
958.147827 0.759525 
959.155396 0.540372 
960.156006 0.269798 
961.163574 0.140647 
962.155457 0.111791 
963.154663 0.024301 
964.155457 0.028718 
968.139893 0.083073 
969.161743 0.019877 
971.146423 0.037984 
973.158264 0.805376 
974.167175 0.623232 
975.164429 0.86899 
976.169067 0.360253 
977.168823 0.230337 
978.169189 0.048478 
979.170349 0.040191 
983.141174 0.027814 
984.135986 0.308278 
985.150085 0.901044 
986.147827 0.621067 
987.15564 0.677957 
988.15979 0.234069 
989.158813 0.233494 
990.175354 0.535122 
991.17395 0.566699 
992.183289 0.526966 
993.179932 0.385652 
994.193542 0.054137 
995.175903 0.022048 
1000.1604 0.157657 
1001.161621 1.389153 
1002.17511 1.364054 
1003.167358 1.435389 
1004.173645 0.945252 
1005.167236 0.560241 
1006.176086 0.330773 
1007.170227 0.102817 
1008.186951 0.301346 
1009.185181 0.110497 
1010.200623 0.113891 
1012.128906 0.028081 
1013.148254 0.296851 
1014.145203 0.109233 
1015.147766 0.157846 
1016.158752 0.147496 
1017.151917 0.419547 
1018.188049 1.39337 
1019.18634 1.22372 
1020.188477 1.362309 
1021.184082 0.810475 
1022.1875 0.576386 
1023.19873 0.368528 
1024.196411 0.175799 
1025.202271 0.043864 
1028.165283 0.414847 
1029.154053 1.168446 
1030.172363 1.227512 
1031.160156 1.011871 
1032.167114 0.806193 
1033.166016 0.270947 
1034.170654 0.721604 
1035.183838 0.855975 
1036.196289 1.365095 
1037.205444 1.134193 
1038.198486 0.913811 
1039.198364 0.548089 
1040.194458 0.100144 
1041.153564 0.015241 
1042.119751 0.020135 
1043.138306 0.020336 
1044.163086 0.225283 
1045.153198 0.987913 
1046.179199 1.80488 
1047.18103 1.465393 
1048.182251 1.561562 
1049.188599 0.9952 
1050.179077 0.555051 
1051.190063 0.239735 
1052.186279 0.467454 
1053.200439 0.486155 
1054.188599 0.33133 
1055.19873 0.172044 
1056.162231 0.14126 
1057.144531 0.720196 
1058.150146 0.601195 
1059.14917 0.55555 
1060.163452 0.281045 
1061.17688 0.19279 
1062.17981 1.570042 
1063.192261 1.917091 
1064.187866 2.271393 
1065.202515 2.012248 
1066.202026 1.387816 
1067.203369 0.945883 
1068.195679 0.482534 
1069.198486 0.234082 
1070.185425 0.187106 
1071.181274 0.196715 
1072.161377 0.574817 
1073.150879 0.864501 
1074.174316 2.153773 
1075.177368 1.83541 
1076.175903 1.847654 
1077.175537 1.029505 
1078.169434 0.544748 
1079.206665 1.329154 
1080.193604 2.271728 
1081.205933 2.47054 
1082.196655 1.947638 
1083.209106 1.393184 
1084.199585 0.591327 
1085.195801 0.42684 
1086.180176 0.355267 
1087.185425 0.587364 
1088.186768 0.579785 
1089.182495 0.70988 
1090.176392 2.011915 
1091.185913 2.181874 
1092.179321 2.326511 
1093.186646 1.714883 
1094.18457 1.056192 
1095.179199 0.601493 
1096.165161 0.307439 
1097.217041 2.114648 
1098.213013 1.328116 
1099.216675 1.864601 
1100.18457 0.838391 
1101.179321 0.57454 
1102.15918 0.608266 
1103.180298 0.673477 
1104.188354 0.57805 
1105.201294 0.717426 
1106.19873 0.533646 
1107.201416 2.604236 
1108.194702 2.797523 
1109.199585 3.568252 
1110.197754 2.26572 
1111.203003 1.74031 
1112.194946 0.762924 
1113.191895 1.208488 
1114.180054 1.368417 
1115.185425 2.054306 
1116.181274 1.683136 
1117.184692 1.548268 
1118.174561 1.374605 
1119.175903 1.083531 
1120.167114 0.98778 
1121.172363 0.514374 
1122.188965 0.160299 
1123.191406 0.095331 
1124.212158 0.204986 
1125.210327 6.892744 
1126.214478 4.565218 
1127.210205 5.861911 
1128.212402 2.953929 
1129.21167 1.702103 
1130.20874 1.407168 
1131.198608 2.490864 
1132.205566 2.593312 
1133.198608 3.085377 
1134.203125 2.216165 
1135.197144 2.421732 
1136.196045 1.793873 
1137.192139 1.574559 
1138.186768 0.856851 
1139.178833 0.508926 
1140.174683 0.200012 
1141.175537 0.735836 
1142.17041 0.593502 
1143.174072 0.913515 
1144.173584 0.730582 
1145.166748 0.511321 
1146.174316 0.282267 
1147.178101 0.635962 
1148.217529 1.483953 
1149.213013 1.396901 
1150.220825 1.915348 
1151.2229 1.274329 
1152.215088 0.752807 
1153.207275 2.486326 
1154.210815 1.541926 
1155.2052 2.010721 
1156.205444 1.14114 
1157.173096 1.212553 
1158.179321 3.111932 
1159.186523 5.379682 
1160.190063 5.796745 
1161.189209 6.209611 
1162.191162 3.888763 
1163.181763 2.686604 
1164.182861 1.357905 
1165.1698 0.715272 
1166.168457 0.206902 
1167.172974 0.028224 
1171.214233 0.022634 
1172.226074 0.029617 
1174.19043 1.108113 
1175.185425 6.832143 
1176.207764 14.233828 
1177.202148 14.846755 
1178.209717 17.759453 
1179.212158 11.503548 
1180.212646 6.879642 
1181.213867 2.754188 
1182.209229 0.863761 
1183.19751 0.107146 
1187.157349 0.182911 
1188.147095 0.074196 
1189.154663 0.058876 
1191.189087 0.026814 
1192.212646 3.914018 
1193.215454 3.461834 
1194.212036 5.903405 
1195.213989 3.94866 
1196.212891 2.47751 
1197.210327 1.026915 
1198.207275 0.22357 
1202.187256 0.353522 
1203.182129 0.86823 
1204.18811 1.217085 
1205.184326 1.377517 
1206.187988 1.042826 
1207.177979 0.522923 
1208.183228 0.12478 
1218.152832 0.214841 
1219.157104 0.182949 
1220.207031 4.053878 
1221.209473 3.512258 
1222.207031 6.026509 
1223.207764 4.281018 
1224.207153 2.595771 
1225.207886 1.15924 
1226.202759 0.295833 
1238.157104 0.013542 
1269.235229 0.022814 
1277.236328 0.030627 
1290.266479 0.056856 
1291.270508 0.028038 
1292.265625 0.177891 
1293.25061 0.33032 
1294.248169 0.31315 
1295.247192 0.37689 
1296.25769 0.21597 
1297.248657 0.021578 
1306.247681 0.110504 
1307.283325 0.374367 
1308.280762 0.483304 
1309.287109 0.654347 
1310.280396 1.012029 
1311.280518 0.805465 
1312.272583 0.95488 
1313.264282 0.648419 
1314.266968 0.309631 
1315.258545 0.065967 
1318.265137 0.05721 
1319.246338 0.113983 
1320.25769 0.681836 
1321.248413 0.93875 
1322.251465 1.074072 
1323.247192 1.010024 
1324.25 0.719874 
1325.255493 0.439324 
1326.273071 0.23089 
1327.269287 0.057331 
1334.266968 0.477273 
1335.276245 0.652419 
1336.277954 1.026576 
1337.275024 1.076294 
1338.270264 3.424013 
1339.270386 3.259878 
1340.268799 4.648337 
1341.268921 3.239682 
1342.268066 2.095084 
1343.263428 0.93316 
1344.263062 0.259449 
1350.259155 0.088739 
1351.291382 0.729924 
1352.290161 0.835016 
1353.300781 1.241303 
1354.282471 1.51756 
1355.277466 1.226427 
1356.267212 1.479158 
1357.266968 0.997225 
1358.257202 0.586136 
1359.257812 0.133521 
1360.263794 0.017661 
1361.257812 0.120633 
1362.27002 1.137124 
1363.269531 1.294659 
1364.265259 1.870727 
1365.264771 1.564409 
1366.260986 1.173272 
1367.24939 0.792652 
1368.236938 0.428713 
1369.22583 0.027077 
1378.260742 0.662875 
1379.294067 6.260017 
1380.296997 6.462479 
1381.29541 10.311633 
1382.28772 9.696635 
1383.283203 7.308129 
1384.268433 6.887156 
1385.264893 4.378291 
1386.26001 2.725525 
1387.259644 1.160137 
1388.248901 0.394657 
1395.278198 0.552942 
1396.285645 0.634658 
1397.283447 1.033553 
1398.289307 0.7991 
1399.279541 0.357846 
1400.287842 0.059562 
1405.266724 0.033687 
1406.263184 0.171702 
1407.259033 0.470538 
1408.255371 0.493928 
1409.259277 0.251793 
1410.246216 0.035978 
1423.286987 2.392136 
1424.286621 2.469763 
1425.287109 4.123761 
1426.287842 3.00718 
1427.286865 2.018881 
1428.285645 0.811045 
1429.283081 0.123668 
1499.325073 0.027609 
1513.337402 0.165183 
1514.341797 0.149291 
1515.332153 0.411665 
1516.337524 0.196891 
1517.335083 0.034064 
1524.306519 0.105281 
1525.315186 0.266529 
1526.307617 0.397473 
1527.307129 0.217062 
1528.317871 0.05709 
1541.348389 2.689819 
1542.348267 3.016601 
1543.348755 4.850999 
1544.350098 3.808791 
1545.347534 2.513519 
1546.349365 1.201052 
1547.337646 0.33471 
1557.334106 0.033068 
1558.342163 0.025947 
1559.331543 0.085343 
1560.326904 0.036506 
1561.338013 0.033768 
1567.319336 0.032319 
1568.315186 0.173607 
1569.307983 0.421275 
1570.304321 0.359576 
1571.31311 0.220923 
1572.31311 0.057856 
1585.339233 3.213615 
1586.341675 3.391536 
1587.339111 5.548471 
1588.338989 4.392671 
1589.339966 2.904571 
1590.338257 1.370903 
1591.330811 0.399686 
1895.211426 0.471667 
END IONS

