BEGIN IONS
PEPMASS=871.485
CHARGE=1+
COMPOUNDNAME=ABAMECTIN
LIBRARYQUALITY=3
SMILES=N/A
INCHIKEY=RRZXIRBKKLTSOM-XPNPUAGNSA-N
INCHI=InChI=1S/C48H72O14/c1-11-25(2)43-28(5)17-18-47(62-43)23-34-20-33(61-47)16-15-27(4)42(26(3)13-12-14-32-24-55-45-40(49)29(6)19-35(46(51)58-34)48(32,45)52)59-39-22-37(54-10)44(31(8)57-39)60-38-21-36(53-9)41(50)30(7)56-38/h12-15,17-19,25-26,28,30-31,33-45,49-50,52H,11,16,20-24H2,1-10H3/b13-12+,27-15+,32-14+/t25-,26-,28-,30-,31-,33+,34-,35-,36-,37-,38-,39-,40+,41-,42-,43+,44-,45+,47+,48+/m0/s1
MSLEVEL=2
SOURCE_INSTRUMENT=N/A-ESI-QFT
FILENAME=library_mgf.mgf
SEQ=*..*
IONMODE=negative
ORGANISM=MONA
NAME=ABAMECTIN [M-H]-
PI=MoNA
DATACOLLECTOR=MoNA:VF-NPL-QEHF028041
PUBMED=N/A
SUBMITUSER=mwang87
TAGS=
SPECTRUMID=CCMSLIB00004721622
SCANS=28041
61.395851 0.581768 
61.986954 8.225232 
62.306252 0.320066 
62.480194 0.575593 
62.831245 0.611134 
63.26215 0.455416 
64.215591 0.423151 
65.038216 11.02654 
65.408592 0.505121 
65.414352 0.637901 
65.526947 0.678305 
65.988213 0.536108 
66.905266 0.54067 
67.017525 29.336895 
67.282219 0.37847 
67.306679 0.280376 
68.345406 0.441752 
68.598785 0.620263 
69.033195 32.059296 
69.035278 0.457007 
69.058052 0.34126 
69.292267 0.325999 
69.848877 0.348416 
70.084229 0.418065 
70.990715 0.61856 
71.012505 0.362779 
71.204361 0.253508 
72.426292 0.728092 
72.657822 0.544823 
72.919998 0.633437 
73.061775 0.589732 
74.248688 0.454364 
74.767982 0.481758 
75.884865 0.429494 
77.787201 0.467684 
78.251419 0.657049 
79.685005 0.631913 
79.982986 0.423304 
80.173759 0.714533 
80.307655 0.457744 
80.807434 0.595873 
80.899818 0.464715 
81.033211 55.061211 
81.716423 0.594089 
82.00631 0.433784 
82.782166 0.532212 
83.048851 27.55434 
83.112694 0.260065 
83.115547 0.264887 
84.020309 100.0 
85.028122 96.099274 
87.438278 0.334603 
87.539581 0.562321 
88.001366 0.597892 
88.752037 0.596931 
89.059364 0.63928 
89.676376 0.484232 
90.039787 0.559692 
90.679482 0.397191 
91.493362 0.46567 
91.851562 0.65495 
92.72921 0.549276 
93.033195 20.112946 
93.822189 0.436608 
94.75116 0.452044 
95.04882 2.402441 
97.028114 1.427425 
97.064552 26.082582 
97.346008 0.60932 
98.060364 0.696519 
99.007195 0.320437 
99.043816 1.530107 
99.225456 0.558917 
99.315887 0.309943 
99.684074 0.641677 
99.881859 0.690556 
104.382767 0.562036 
105.033371 2.010685 
105.243401 0.639069 
105.876007 0.574617 
107.048927 14.122476 
107.695045 0.750723 
107.84539 0.626479 
108.020401 2.848987 
109.028152 52.80624 
110.214272 0.59994 
110.780891 0.492798 
111.792877 0.640625 
112.298981 0.456635 
113.675636 0.508273 
115.46846 0.664508 
116.392159 0.52829 
117.033791 1.166 
118.999123 0.708266 
119.518661 0.260515 
119.934273 0.618449 
121.028198 8.839637 
121.06488 0.645676 
121.348557 0.297294 
121.904495 0.623095 
122.036049 6.028041 
122.48719 0.533748 
123.043861 56.272091 
124.047195 1.925741 
125.023232 0.43471 
131.048767 1.989051 
135.044144 1.183628 
136.118439 0.648507 
136.793945 0.563006 
137.059341 0.649336 
139.038879 0.408527 
140.585983 0.567862 
142.416901 0.588196 
144.893875 0.669177 
147.044098 1.775631 
148.052353 0.495377 
148.605316 0.441325 
148.993134 0.598219 
149.022949 1.489236 
149.17923 0.858773 
149.417786 0.269593 
149.457947 0.457914 
152.763611 0.676234 
152.864197 0.484373 
153.014664 0.266264 
157.065018 0.495156 
159.044037 2.365 
163.536469 0.644821 
163.628311 0.63469 
163.692368 0.576911 
164.122665 0.461159 
167.034348 0.924288 
168.381683 0.51436 
169.124405 0.47723 
171.080688 1.217808 
173.059677 0.966586 
175.039276 1.026599 
182.530579 0.597987 
183.081207 1.541325 
183.166229 0.562846 
185.060303 1.414246 
185.09549 0.489892 
187.758606 0.600404 
189.774551 0.588463 
190.330566 0.271013 
194.626953 0.645163 
195.515945 0.268852 
197.060196 0.566833 
197.096512 1.882204 
198.067307 0.966239 
199.075958 4.586006 
201.356689 0.582068 
202.522232 0.31775 
204.05513 0.555852 
205.851044 0.571287 
206.366043 0.694411 
207.485901 0.45075 
207.620743 0.612782 
210.039474 0.446702 
211.46228 0.69502 
213.091858 2.145099 
214.171921 0.380177 
219.795837 5.464006 
219.818253 0.738753 
219.829819 0.509158 
223.723572 0.648507 
225.024506 0.74735 
229.055679 0.445015 
232.043945 0.702044 
243.66127 0.466068 
254.708557 0.701853 
256.41507 0.376767 
267.302002 0.522384 
272.581177 0.28626 
278.30368 0.52643 
279.525238 0.403583 
296.457794 0.686253 
304.17627 0.433909 
305.706818 0.754813 
308.959625 0.588946 
313.533691 0.485475 
316.552673 0.393757 
317.073059 0.499422 
321.910828 0.430179 
327.839081 0.656259 
328.939087 0.513667 
329.130066 0.52425 
337.323425 0.690148 
340.441528 0.607514 
341.438965 0.589487 
345.843475 0.580688 
351.486145 0.830027 
354.464569 0.675743 
355.68985 0.445121 
361.283539 0.308195 
370.815491 0.526363 
372.746094 0.801094 
382.665863 0.498949 
401.690002 0.522898 
403.984924 0.662345 
457.150146 0.450384 
463.015869 0.954243 
486.48056 0.51933 
488.131317 0.676509 
490.607971 0.65071 
491.541687 0.555403 
499.562134 0.659173 
500.250916 0.400791 
509.593719 0.282014 
522.739868 0.675514 
529.727661 0.266557 
536.899048 0.521993 
545.543701 0.298014 
549.426086 0.545297 
562.122742 0.767805 
563.107666 0.291352 
569.095886 0.510441 
585.561768 0.699816 
605.335144 0.334723 
617.21405 0.620052 
650.394226 0.565259 
654.993408 0.609217 
669.437439 0.64855 
672.552734 0.536737 
719.762878 0.316606 
727.71106 0.444614 
762.621826 0.577572 
780.136047 0.690075 
787.035828 0.333383 
807.770752 0.473637 
813.269897 0.406981 
819.001038 0.593103 
824.087708 0.527282 
868.706665 0.71481 
876.752686 0.310321 
878.081482 0.705844 
888.165405 0.541628 
898.893738 0.425856 
900.053528 0.618208 
END IONS

