BEGIN IONS
PEPMASS=379.076
CHARGE=1+
COMPOUNDNAME=bisdethiobis(methylthio)gliotoxin
LIBRARYQUALITY=3
SMILES=N/A
INCHIKEY=OVBAGMZLGLXSBN-UOVKNHIHSA-N
INCHI=InChI=1S/C15H20N2O4S2/c1-16-12(20)14(22-2)7-9-5-4-6-10(19)11(9)17(14)13(21)15(16,8-18)23-3/h4-6,10-11,18-19H,7-8H2,1-3H3/t10-,11-,14+,15+/m0/s1
MSLEVEL=2
SOURCE_INSTRUMENT=N/A-ESI-QFT
FILENAME=library_mgf.mgf
SEQ=*..*
IONMODE=positive
ORGANISM=MONA
NAME=bisdethiobis(methylthio)gliotoxin [M+Na]+
PI=MoNA
DATACOLLECTOR=MoNA:VF-NPL-QEHF024552
PUBMED=N/A
SUBMITUSER=mwang87
TAGS=
SPECTRUMID=CCMSLIB00004715615
SCANS=24552
50.706661 0.54613 
50.976635 0.334022 
51.940369 15.9505 
52.458755 0.25358 
52.940533 0.850269 
52.958412 0.522642 
52.972572 0.529406 
53.038994 6.007948 
53.899429 0.512029 
53.939457 0.316802 
54.034164 0.477394 
54.910564 0.255543 
54.937897 3.054507 
55.018246 5.859234 
55.054604 16.814991 
55.934734 36.248718 
56.049866 14.220084 
56.942638 3.071743 
56.965107 8.44189 
57.033909 5.375055 
57.070217 10.018503 
57.935173 4.042269 
58.029175 0.377652 
58.065434 10.821389 
58.920982 1.470625 
58.995331 0.276694 
59.049488 1.77798 
59.073265 0.506914 
59.930573 0.87108 
60.055874 0.469936 
60.081234 0.573931 
60.41222 1.201995 
61.009262 0.435499 
61.010948 51.815075 
61.028687 1.640594 
61.086266 0.263266 
61.114208 0.303305 
61.738129 1.353891 
61.851875 1.496352 
62.018734 17.172493 
63.006771 0.428596 
63.026592 0.793642 
63.997898 0.266685 
64.567619 1.427121 
65.038818 2.625821 
65.817528 0.290185 
67.041893 0.552674 
67.054436 13.780858 
67.850571 0.321918 
67.930702 0.615743 
68.049644 11.838779 
68.942894 12.754526 
69.033676 15.056372 
69.070053 11.479176 
69.943054 0.792727 
70.028992 0.361162 
70.065285 92.149414 
70.067451 0.912511 
70.942024 1.098147 
70.958031 7.989781 
71.049316 5.503982 
71.068581 2.166729 
71.085716 0.320483 
71.27684 1.178201 
71.929436 4.93457 
71.940407 0.921034 
72.044495 2.489405 
72.080925 7.752011 
72.937271 48.970638 
72.939491 0.906194 
73.02858 1.130147 
74.06015 0.498764 
74.705513 0.333366 
74.860428 1.564692 
75.026413 0.37825 
78.046547 0.529744 
78.836266 1.828585 
79.021355 5.800783 
79.054314 16.888083 
79.696396 0.579567 
80.049591 10.549368 
81.033638 31.847378 
81.036049 1.197189 
81.044807 4.659275 
81.069977 8.516104 
82.028732 0.415433 
82.052711 0.469409 
82.065285 10.246403 
83.04924 10.646987 
83.059181 1.632001 
83.930023 0.366184 
84.044472 2.978597 
84.080925 29.862724 
84.93782 1.627889 
85.028542 3.085712 
85.039803 1.654662 
85.064941 2.021052 
86.060188 6.645497 
86.096542 9.401109 
87.044228 1.801197 
87.906647 1.024634 
88.021446 0.382474 
88.31546 0.25359 
88.91436 5.306378 
88.952522 0.509777 
88.96862 2.291347 
89.038773 3.528943 
89.940125 2.95547 
89.963928 0.36969 
89.971611 0.300444 
90.500366 1.147314 
90.764442 1.514027 
90.947823 30.797319 
90.950851 0.417268 
91.05439 33.039238 
92.049767 0.753648 
92.057709 0.533945 
92.982872 3.737696 
93.070053 7.577615 
93.141472 1.466447 
93.15493 0.326486 
94.065254 11.70057 
95.012978 2.018835 
95.049248 16.258022 
95.060539 7.756379 
95.069038 0.363794 
95.085663 3.68715 
96.007072 1.466347 
96.044518 5.468272 
96.068222 0.321892 
96.080917 8.398055 
97.02858 4.278132 
97.06469 0.638667 
97.07608 0.336918 
97.083992 0.359373 
97.968933 0.904166 
98.060143 13.148927 
98.096413 1.607086 
98.975494 2.872744 
99.044075 2.697781 
99.948219 4.337717 
100.075882 4.414231 
101.940361 0.411383 
101.99894 1.165199 
102.091522 2.337827 
102.948372 5.918804 
103.054459 7.350841 
103.94809 0.347207 
104.049538 1.450559 
104.512253 0.31179 
104.963676 0.878425 
105.033707 9.95481 
105.044945 0.926421 
105.070023 24.013266 
105.917076 1.175104 
106.065285 7.490414 
106.073471 0.493272 
106.925079 0.523621 
107.049248 19.211168 
107.073509 0.393771 
107.085579 0.80925 
107.950775 0.354173 
108.044655 4.219456 
108.08094 8.328517 
108.401443 0.635894 
108.958565 4.054075 
109.028694 1.060531 
109.065002 1.929782 
109.076225 1.389891 
110.060242 13.101204 
110.071434 2.190446 
110.096771 0.947014 
111.044266 7.028568 
111.055473 6.642158 
111.080536 0.25918 
112.039841 0.315417 
112.075859 2.37429 
113.034744 0.461978 
113.963875 11.143288 
114.055138 1.484586 
115.054459 4.465717 
115.943069 0.406356 
115.979591 0.308881 
116.049644 4.809367 
116.070869 0.315124 
116.963898 19.423414 
116.971817 0.850142 
116.985863 2.300132 
117.057533 3.298528 
117.07003 3.7726 
117.814293 0.338429 
117.958939 1.577363 
117.963913 0.473635 
118.065163 11.018626 
118.086403 4.458507 
118.925148 2.326552 
118.943306 4.77026 
118.967522 0.353965 
119.049271 3.637774 
119.06057 1.293688 
119.073395 0.419294 
119.085724 0.732158 
119.535103 0.560899 
119.943687 0.420287 
119.950912 0.906059 
120.044411 2.328422 
120.080971 15.749453 
120.940636 11.854634 
120.958809 0.622149 
121.028534 1.716855 
121.064903 5.870557 
121.076096 0.681334 
122.060226 9.114695 
122.071571 1.581816 
122.096512 3.794841 
122.276642 0.266408 
123.044273 1.594364 
123.079315 1.995284 
123.091812 0.52218 
124.039345 1.716695 
124.075882 16.687954 
124.936005 1.002325 
125.023415 0.418376 
125.059387 0.396163 
125.071075 7.398419 
125.961464 0.44196 
126.055168 1.447988 
126.091438 4.115534 
126.984154 1.356287 
128.049576 1.747081 
128.062317 0.803413 
128.070663 0.404195 
128.963837 26.121138 
129.069992 2.888853 
130.065262 29.530481 
130.979584 21.476849 
131.000351 0.683493 
131.049347 1.33745 
131.073151 0.610042 
131.0858 1.033074 
131.950653 0.375053 
131.974426 4.510891 
131.979691 1.594971 
132.044464 3.585942 
132.068405 3.658013 
132.080902 7.312589 
132.958115 6.885826 
133.052368 1.879024 
133.064987 1.657586 
133.076172 1.032968 
133.08905 0.456335 
133.948456 1.587333 
133.953781 2.836358 
134.059982 13.174282 
134.096588 8.142583 
134.956131 57.766506 
134.974228 4.853274 
134.979309 0.428757 
134.996536 1.101361 
135.044342 1.593884 
135.055481 0.865779 
135.091888 1.573561 
135.927994 0.953161 
136.039688 0.925321 
136.062134 1.549489 
136.075775 11.101448 
136.112366 1.285731 
136.935593 1.240927 
137.023743 0.34106 
137.060043 1.774035 
138.01857 0.354571 
138.055206 1.266989 
138.0914 3.028219 
138.951248 7.118716 
138.984222 2.895865 
139.087067 0.420376 
139.979492 2.26323 
140.070786 0.486306 
140.107788 0.44958 
141.995255 1.060772 
142.065292 1.206109 
142.08638 13.277392 
142.979614 1.344284 
143.085587 0.876522 
143.974487 0.841611 
144.044403 15.930008 
144.080811 6.252226 
144.95871 2.160061 
144.98056 0.348738 
144.995132 0.520771 
145.028137 0.783866 
145.064911 3.415827 
145.076279 2.658438 
145.990204 0.383383 
146.060135 12.201082 
146.096527 6.613407 
146.222305 1.128999 
146.974472 100.0 
147.04422 1.676673 
147.091797 4.253137 
147.699966 1.18464 
147.974457 10.866304 
148.020676 1.54402 
148.038971 1.053692 
148.075882 10.192105 
148.112213 0.931681 
148.955826 0.520775 
148.972046 16.351028 
148.990067 3.431356 
149.059692 0.303065 
149.071487 0.899751 
149.083862 0.350495 
149.107498 1.629769 
149.954193 0.346191 
149.971985 0.376843 
150.055191 2.333797 
150.091507 5.308363 
150.128326 0.624234 
150.951202 23.17312 
150.969162 8.010411 
150.984161 5.571183 
151.076035 0.329857 
151.087006 0.93723 
151.123108 0.464067 
151.951447 0.407846 
151.959137 2.854857 
152.070816 1.949423 
152.106873 0.357244 
152.951721 0.37452 
152.966827 63.30883 
152.989288 1.859085 
153.938797 0.333231 
153.959625 0.403897 
154.065216 1.546221 
154.086151 0.913233 
154.979004 2.517111 
155.073227 0.364611 
155.954987 0.313874 
155.974518 0.382832 
156.044418 0.402941 
156.080933 4.266825 
156.101944 1.611457 
157.076279 5.299836 
157.089127 1.708404 
157.990097 3.143905 
158.060104 6.623936 
158.096558 3.537834 
158.974289 2.428855 
159.091797 2.73061 
160.005585 0.321162 
160.039368 0.306574 
160.075897 7.796662 
160.1129 0.487294 
160.990372 1.245895 
161.060028 0.778871 
161.070938 0.39261 
161.828278 0.367359 
162.055099 8.154873 
162.066254 0.420615 
162.091599 7.070483 
163.051605 0.318901 
163.086884 0.432975 
163.977356 1.381145 
164.070938 2.298743 
164.09404 0.390242 
164.107239 3.4318 
165.13826 0.368345 
165.97142 4.101572 
165.995834 0.409824 
166.050262 0.391052 
166.086365 2.163977 
166.966034 1.280479 
166.982666 1.015312 
167.000549 0.355871 
167.715225 1.71554 
167.974487 0.397119 
168.064728 0.57596 
168.080994 0.492746 
168.102234 0.397161 
168.961945 6.134937 
168.978699 0.309618 
168.995392 0.451928 
169.076309 4.803944 
169.990448 0.311931 
170.060211 1.849289 
170.096695 2.370298 
170.975937 0.296717 
171.092072 1.029387 
172.039474 3.905812 
172.075943 3.357875 
172.087097 5.397815 
172.112762 0.476412 
172.989838 0.365114 
173.071106 0.833665 
173.083725 0.467217 
173.107483 2.115565 
174.006424 0.87609 
174.021439 0.65826 
174.055237 9.841425 
174.091721 4.816948 
175.086853 12.461 
175.947098 0.391981 
175.979706 2.627341 
176.001099 1.01301 
176.070923 1.834877 
176.10733 2.036578 
176.984299 2.520128 
177.99501 1.009921 
178.086533 2.783763 
178.965088 0.912478 
178.979187 36.17001 
178.987717 0.474567 
179.000351 1.16681 
179.995865 0.313444 
180.102295 1.803356 
180.888229 2.810968 
181.075516 0.34817 
181.966125 0.43211 
181.989151 0.703252 
182.083771 1.806129 
182.974182 4.388906 
183.091721 0.546853 
183.982025 2.558364 
184.076324 2.296017 
184.086243 0.340384 
184.111511 0.335446 
184.794754 0.614078 
184.990555 0.670985 
185.071243 6.526744 
185.082932 0.278541 
185.107742 1.443892 
186.091797 3.903694 
186.102081 0.515045 
187.086304 3.41241 
188.071136 0.83699 
188.106934 0.336188 
188.987473 0.414267 
189.8862 0.34031 
190.016663 0.549108 
190.086624 1.556119 
190.122894 1.22551 
191.881287 8.857432 
191.974213 0.345576 
191.995804 0.293721 
192.033066 0.429722 
192.102203 0.681076 
192.889175 1.213479 
192.962189 0.726386 
193.957321 2.296798 
193.990204 2.724313 
195.092361 1.463021 
195.948212 0.379723 
196.076523 0.311369 
196.865982 0.285788 
196.989731 13.703658 
197.070877 2.546108 
197.68811 0.309846 
198.091415 3.16883 
198.11293 6.625642 
198.854965 0.976081 
198.980331 0.873196 
199.086624 2.245626 
199.123215 0.816906 
200.071243 1.99921 
200.107681 0.727515 
200.984741 1.370942 
201.065643 1.265346 
201.088898 0.414815 
201.101913 0.982218 
201.99588 0.394056 
202.07222 0.769605 
202.086441 1.088517 
202.993607 0.530783 
203.081467 2.335132 
203.99559 0.314442 
204.101776 0.328301 
204.349991 1.576741 
204.982666 1.913123 
205.015564 0.392781 
205.990036 5.312115 
206.083725 0.332256 
206.868027 3.767934 
206.889481 0.333607 
206.926819 3.610758 
206.977982 0.348482 
207.875992 6.662212 
207.896591 0.562268 
208.00592 0.341951 
208.883987 11.135695 
208.959442 0.356931 
208.977234 0.991192 
209.129105 0.807486 
209.891953 14.56575 
210.899918 2.470074 
211.086945 2.855179 
212.000519 0.729993 
212.107483 0.942981 
213.066391 0.693139 
213.077667 0.430832 
213.102158 0.71456 
214.073639 0.353501 
214.085983 0.922238 
214.12262 0.751565 
215.081787 1.905107 
215.117538 0.637805 
215.901581 0.366505 
216.066162 0.415897 
216.077393 4.383022 
216.088257 44.321247 
216.100952 1.202888 
216.889389 0.431383 
216.991379 0.504646 
217.09288 2.83804 
217.990601 1.221907 
218.868698 0.837575 
218.905228 0.451555 
219.07843 0.353054 
219.091888 1.698634 
219.910324 5.436029 
219.9664 0.624927 
220.903687 6.340845 
221.985321 1.239878 
222.898727 26.387503 
222.99231 1.725124 
224.00058 3.104378 
224.878876 7.348764 
225.103012 0.345431 
225.887085 12.680404 
226.086594 1.322874 
226.123276 0.415143 
226.895615 0.428219 
227.08226 1.811105 
227.118164 0.366151 
229.896347 0.758933 
230.907089 0.848794 
232.883942 8.51247 
233.891876 14.328122 
233.984406 0.994164 
234.899521 49.272964 
235.177063 1.500259 
235.899719 2.690769 
236.000031 0.536731 
237.979858 0.371226 
238.914047 13.831664 
239.901291 1.124443 
239.913498 0.372967 
239.99614 0.327703 
240.896423 0.339236 
240.909317 38.158974 
241.911469 0.615476 
243.087906 1.42177 
244.096542 0.367459 
245.092819 0.573557 
245.951187 0.613186 
247.085541 0.509174 
247.907059 1.015732 
248.878571 12.021601 
248.900223 0.637079 
250.894455 18.282516 
251.893661 0.3639 
252.910553 1.772504 
253.917938 5.929884 
256.751923 1.238548 
261.905518 0.304181 
263.902344 0.507935 
266.889191 5.719427 
267.991364 0.719552 
268.904938 1.250039 
274.894501 0.461742 
275.902374 6.979112 
276.903625 0.396409 
277.917969 0.39577 
279.917206 2.029227 
280.813416 0.438726 
281.912354 12.160144 
282.917236 0.409849 
285.085266 5.93422 
287.83139 1.108903 
295.92923 0.412548 
296.808411 1.174972 
297.816711 1.140207 
302.818451 1.820378 
310.915985 0.42449 
312.83902 1.448472 
344.829559 1.330494 
352.636658 1.734231 
364.841187 0.28237 
383.251862 1.779084 
END IONS

