BEGIN IONS
PEPMASS=1255.64
CHARGE=1+
COMPOUNDNAME=DACTINOMYCIN
LIBRARYQUALITY=3
SMILES=N/A
INCHIKEY=RJURFGZVJUQBHK-IIXSONLDSA-N
INCHI=InChI=1S/C62H86N12O16/c1-27(2)42-59(84)73-23-17-19-36(73)57(82)69(13)25-38(75)71(15)48(29(5)6)61(86)88-33(11)44(55(80)65-42)67-53(78)35-22-21-31(9)51-46(35)64-47-40(41(63)50(77)32(10)52(47)90-51)54(79)68-45-34(12)89-62(87)49(30(7)8)72(16)39(76)26-70(14)58(83)37-20-18-24-74(37)60(85)43(28(3)4)66-56(45)81/h21-22,27-30,33-34,36-37,42-45,48-49H,17-20,23-26,63H2,1-16H3,(H,65,80)(H,66,81)(H,67,78)(H,68,79)/t33-,34-,36+,37+,42-,43-,44+,45+,48+,49+/m1/s1
MSLEVEL=2
SOURCE_INSTRUMENT=N/A-ESI-QFT
FILENAME=library_mgf.mgf
SEQ=*..*
IONMODE=positive
ORGANISM=MONA
NAME=DACTINOMYCIN [M+H]+
PI=MoNA
DATACOLLECTOR=MoNA:VF-NPL-QEHF002901
PUBMED=N/A
SUBMITUSER=mwang87
TAGS=
SPECTRUMID=CCMSLIB00004693964
SCANS=2901
87.100311 0.254726 
87.86586 0.0416 
87.894562 0.034772 
88.354622 0.039772 
89.043732 0.040841 
89.55378 0.039967 
89.880508 0.042153 
90.220871 0.03819 
90.623108 0.029943 
91.315384 0.047673 
92.883896 0.044112 
94.23336 0.033196 
94.558289 0.040941 
94.70491 0.042824 
95.460739 0.040837 
96.081154 0.304302 
96.257515 0.039706 
96.51503 0.027801 
96.753433 0.035811 
98.060394 1.336572 
98.096802 1.424891 
98.414085 0.026504 
100.039673 11.936017 
100.186867 0.026346 
100.693192 0.044644 
101.67588 0.027826 
102.239052 0.045854 
103.869225 0.045764 
104.816231 0.030891 
105.240356 0.03067 
107.29171 0.044181 
108.081032 0.201565 
108.237656 0.040059 
108.730934 0.039945 
109.27227 0.036011 
109.653427 0.039721 
110.096504 0.325665 
111.220039 0.038569 
112.112312 0.815954 
112.839478 0.035559 
113.070419 0.041509 
114.091576 9.038345 
114.36705 0.044713 
115.218994 0.057502 
115.234039 0.041608 
117.052948 0.02974 
117.684479 0.039658 
118.339668 0.038163 
119.233009 0.035817 
119.456406 0.038382 
119.658653 0.036522 
120.413239 0.025347 
120.84227 0.036004 
122.008881 0.03093 
122.096199 0.065184 
123.091743 0.306559 
123.538322 0.030729 
124.112183 7.904944 
124.494751 0.031035 
125.107346 0.579602 
125.690681 0.046059 
126.054039 0.042396 
126.091415 3.646481 
126.281563 0.031188 
126.794998 0.04567 
128.10672 0.045935 
129.406464 0.040856 
130.693146 0.039787 
131.861069 0.046103 
132.101868 23.205793 
133.105194 0.254014 
134.797043 0.033146 
135.273514 0.025908 
136.627014 0.034886 
138.642471 0.038934 
139.086502 0.80682 
142.085983 0.142985 
142.122635 1.03887 
142.547699 0.045735 
142.666122 0.032536 
144.228058 0.037119 
148.389328 0.025711 
148.683792 0.04247 
149.1689 0.038761 
150.432983 0.044717 
151.093536 0.027236 
153.102142 0.183708 
154.086075 0.689441 
154.628723 0.038268 
156.972809 0.042427 
161.236038 0.047259 
162.426239 0.024904 
162.935699 0.033107 
164.569153 0.038856 
166.034348 0.042432 
166.917084 0.041412 
167.1035 0.033319 
167.117325 0.033032 
169.962418 0.038323 
170.117355 0.042763 
170.334381 0.025766 
170.561584 0.035196 
171.278275 0.036705 
172.617645 0.035807 
172.899429 0.042286 
173.171524 0.035158 
180.065247 0.042166 
183.423004 0.047495 
184.341827 0.038478 
185.128845 0.040408 
185.633652 0.031918 
186.707077 0.055034 
186.907883 0.032397 
187.183212 0.042198 
190.670212 0.046326 
193.973923 0.038826 
194.227661 0.043484 
199.049225 0.025154 
201.835587 0.036638 
203.138947 1.680949 
203.525482 0.0327 
204.544952 0.036628 
204.931427 0.040059 
209.484039 0.037733 
213.768799 0.043354 
216.729065 0.039113 
218.727905 0.032931 
220.196289 0.850936 
220.477386 0.045627 
223.318146 0.031692 
225.133896 0.030214 
225.66394 0.038292 
227.761292 0.043727 
229.017181 0.027594 
231.079773 0.027897 
232.795685 0.039204 
234.840591 0.040918 
237.986389 0.037165 
239.081406 0.586872 
240.087433 0.034407 
240.72641 0.04065 
241.266296 0.03493 
241.996628 0.045738 
245.682953 0.038719 
251.082153 0.032465 
251.223969 0.033867 
253.060852 0.30126 
253.98378 0.037978 
255.310654 0.043026 
256.061218 0.033857 
257.091827 0.050072 
258.076294 0.089632 
264.075684 0.101175 
265.060883 0.371255 
265.098236 0.037961 
266.067413 0.095681 
267.075958 6.656568 
268.081024 0.140914 
269.207489 0.033295 
271.07135 0.052149 
273.603149 0.039555 
276.61499 0.0416 
277.083466 0.782043 
277.097931 0.166431 
277.603149 0.044849 
278.092072 1.882488 
279.077057 0.055576 
282.086853 0.060789 
283.071106 0.978177 
285.08667 5.24448 
287.226227 0.029251 
292.107086 0.130283 
293.055328 22.438089 
293.07373 0.309545 
293.240967 0.040902 
294.058838 1.746842 
294.087006 2.707917 
295.070953 2.270881 
299.065826 0.043759 
305.077698 7.758346 
305.110199 0.034323 
305.561981 0.038809 
306.085419 1.519398 
308.381958 0.042281 
309.073822 4.264477 
309.247894 0.052081 
310.081451 3.806037 
311.065826 1.518946 
311.56958 0.045677 
313.081207 0.628703 
318.087006 0.165479 
319.094116 0.35862 
320.102539 28.155794 
321.087372 0.553548 
321.107086 4.118264 
322.081665 4.342917 
322.117828 1.474021 
322.346313 0.043823 
323.086792 0.102148 
324.096649 0.085476 
325.068634 0.51717 
328.093231 0.135287 
329.076569 4.805669 
329.097809 0.226713 
330.085571 0.803759 
331.093811 0.138544 
332.102417 1.999153 
333.073822 9.769086 
333.09436 0.245102 
334.081207 7.98383 
334.117767 0.165224 
335.088959 3.690446 
336.07489 0.050282 
336.097076 1.550566 
337.081482 2.246133 
337.10437 1.520442 
338.076874 0.367016 
338.112762 0.266817 
339.083649 0.313094 
340.092224 1.612196 
343.118774 0.048234 
344.088928 0.214536 
345.110901 0.304143 
346.082123 0.086937 
346.11792 0.047557 
347.115814 0.128266 
348.09726 100.0 
349.101257 13.622735 
350.073975 0.045203 
350.11264 2.603949 
351.09668 0.107606 
352.092377 0.653635 
353.100372 0.144141 
357.097412 5.229414 
358.081635 1.237007 
358.104645 2.57178 
359.085632 0.051865 
359.112183 1.004044 
359.150085 1.529733 
360.09726 0.059029 
360.1315 0.096725 
362.110535 0.048738 
364.129181 0.034155 
366.107941 20.998793 
367.111664 1.891732 
370.118195 0.160211 
370.91684 0.0628 
371.112305 6.880853 
372.120667 8.937078 
373.125427 0.814497 
373.166687 0.044904 
375.143402 0.040308 
376.09201 2.581713 
376.11618 1.526037 
377.122162 0.068877 
377.400391 0.033111 
381.919525 0.044649 
383.17337 0.037368 
385.128998 1.748355 
386.111176 0.066582 
386.136292 0.734712 
387.11676 0.037796 
387.144501 3.990248 
389.224335 0.042276 
394.102783 27.071531 
395.10614 3.485131 
395.962158 0.046745 
400.205048 0.046026 
401.159821 0.275553 
403.139526 0.097285 
410.81366 0.039123 
413.7883 0.040617 
413.836945 0.03724 
422.963043 0.028742 
441.330597 0.036557 
447.819794 0.050304 
456.405365 0.041296 
456.987427 0.045089 
462.995636 0.048527 
488.308105 0.040837 
488.576996 0.045533 
504.325684 0.048424 
507.604431 0.047186 
542.996399 0.028051 
560.260132 0.038519 
564.496887 0.033979 
569.309753 0.047879 
625.635376 0.035768 
652.212524 0.029895 
660.900635 0.0432 
686.942688 0.037637 
687.449707 0.045456 
693.340271 0.038662 
700.818298 0.04397 
707.98584 0.043649 
734.076111 0.04423 
758.666931 0.046432 
769.052063 0.050184 
771.909668 0.0383 
795.432495 0.050476 
810.810791 0.046826 
844.483337 0.028838 
850.4776 0.043608 
872.042908 0.044015 
879.763062 0.046902 
902.980164 0.041551 
906.859985 0.05331 
925.450989 0.045397 
930.032776 0.0335 
936.57196 0.055119 
950.904907 0.043332 
955.642822 0.035278 
974.948303 0.036795 
1002.327515 0.047358 
1084.331909 0.031923 
1084.738525 0.044845 
1100.008057 0.040259 
1124.340942 0.043324 
1158.013794 0.042137 
1160.131348 0.03938 
1223.347534 0.043877 
1232.426514 0.047471 
1275.647217 0.036389 
END IONS

