BEGIN IONS
PEPMASS=430.151
CHARGE=1+
COMPOUNDNAME=(5S,8S)-8-benzoyl-2-[(Z,1S,2S)-1,2-dihydroxyhex-3-enyl]-9-hydroxy-8-methoxy-3-methyl-1-oxa-7-azaspiro[4.4]non-2-ene-4,6-dione
LIBRARYQUALITY=3
SMILES=N/A
INCHIKEY=SLYDIPAXCVVRNY-BBJHAQHQSA-N
INCHI=InChI=1S/C22H25NO8/c1-4-5-11-14(24)15(25)16-12(2)17(26)21(31-16)19(28)22(30-3,23-20(21)29)18(27)13-9-7-6-8-10-13/h5-11,14-15,19,24-25,28H,4H2,1-3H3,(H,23,29)/b11-5-/t14-,15-,19?,21+,22+/m0/s1
MSLEVEL=2
SOURCE_INSTRUMENT=N/A-ESI-QFT
FILENAME=library_mgf.mgf
SEQ=*..*
IONMODE=negative
ORGANISM=MONA
NAME=(5S,8S)-8-benzoyl-2-[(Z,1S,2S)-1,2-dihydroxyhex-3-enyl]-9-hydroxy-8-methoxy-3-methyl-1-oxa-7-azaspiro[4.4]non-2-ene-4,6-dione [M-H]-
PI=MoNA
DATACOLLECTOR=MoNA:VF-NPL-QEHF020440
PUBMED=N/A
SUBMITUSER=mwang87
TAGS=
SPECTRUMID=CCMSLIB00004711503
SCANS=20440
50.513283 0.052646 
51.072376 0.048969 
51.351192 0.054097 
51.691936 0.056982 
51.915092 0.061485 
51.935108 0.073821 
52.647926 0.068245 
52.823711 0.042583 
53.676758 0.048482 
54.370441 0.056634 
54.670177 0.040225 
55.017548 3.08409 
55.057247 0.045831 
55.364162 0.048972 
55.792732 0.045991 
56.599476 0.058838 
56.785503 0.052104 
57.033195 1.732363 
57.404549 0.047482 
57.724106 0.061575 
57.848473 0.042544 
57.91655 0.041156 
58.211559 0.041986 
59.012451 4.679196 
59.014091 0.042344 
59.05714 0.050748 
59.41296 0.054467 
59.620789 0.042034 
59.684879 0.039438 
60.408237 0.046398 
60.582813 0.046016 
60.948009 0.056084 
60.985363 0.043534 
61.004032 0.047126 
61.986946 15.969376 
62.123505 0.053588 
62.814339 0.044262 
63.961056 0.587396 
63.982273 0.063328 
65.567871 0.059326 
65.997192 0.942481 
66.514381 0.055515 
67.017525 0.17383 
67.389397 0.060159 
67.552528 0.053792 
67.785332 0.04014 
68.01281 0.177748 
68.53698 0.048452 
68.612015 0.046527 
68.996819 16.446999 
69.033188 8.393263 
69.616646 0.05524 
71.012466 0.746557 
72.991722 39.522186 
73.003593 0.059804 
73.026039 0.043506 
73.028145 0.704062 
73.897545 0.044268 
73.995148 0.073713 
74.498962 0.059687 
75.007408 0.944584 
75.633087 0.043203 
76.710953 0.045307 
77.038368 0.136654 
77.070335 0.058061 
77.369392 0.054569 
77.940994 0.06597 
78.630554 0.049075 
78.699524 0.065336 
78.900734 0.045475 
78.984566 4.032757 
79.017609 0.056319 
79.803123 0.054291 
80.025299 0.384355 
80.42955 0.048838 
81.033241 1.42836 
82.028526 0.350816 
82.88308 0.044548 
82.888618 0.053669 
83.012527 1.88349 
83.048882 24.432775 
83.137978 0.054806 
83.904335 0.055408 
84.020279 0.04685 
84.052208 0.438101 
84.592247 0.046946 
85.028152 36.592091 
85.684471 0.052242 
85.713043 0.045599 
86.031586 0.495279 
86.419556 0.056568 
86.440178 0.043165 
86.71312 0.049459 
87.007423 0.679653 
87.022499 0.044115 
87.043861 0.797489 
87.969376 0.049343 
88.186478 0.059592 
88.615334 0.046247 
89.041336 0.156378 
89.105057 0.058845 
89.121826 0.050751 
90.464706 0.056865 
90.698433 0.038809 
91.053841 0.11275 
91.564369 0.041021 
91.983246 0.06463 
92.012863 0.602347 
92.049301 0.263144 
92.71048 0.045338 
93.033249 6.442736 
93.283615 0.054541 
93.750313 0.063633 
94.02858 0.309745 
94.332207 0.056726 
94.529312 0.044365 
94.979439 0.765116 
95.012505 0.654577 
95.048912 5.126257 
96.000298 0.067575 
96.004387 0.074742 
96.007767 9.189554 
96.044167 0.722061 
96.602646 0.043714 
96.958801 0.652208 
97.01561 1.386457 
97.02813 17.282469 
97.064644 0.125352 
98.023285 0.072244 
98.031609 0.253112 
98.336914 0.066283 
98.505386 0.047555 
98.573029 0.049242 
99.007477 0.901612 
99.043846 1.689696 
99.151711 0.04013 
100.688469 0.049749 
100.741798 0.060967 
101.023155 0.218949 
103.002518 0.052165 
103.385216 0.043919 
104.049271 4.534367 
105.787003 0.068018 
105.805923 0.054331 
108.020882 0.051191 
108.04422 1.004361 
108.374367 0.050834 
108.602959 0.073918 
109.01564 1.876397 
109.028191 9.281072 
110.023514 4.772407 
110.031387 0.049338 
110.679764 0.06982 
111.007439 0.889945 
111.043854 44.486237 
112.002701 0.432735 
112.039116 3.887256 
112.047256 2.085354 
112.997467 0.053275 
113.023109 14.007525 
113.05954 3.116988 
113.096291 0.052874 
113.730232 0.042664 
114.026688 0.0625 
115.411896 0.053119 
115.998627 0.056232 
116.049332 2.093574 
117.787552 0.058179 
118.821754 0.049531 
119.049049 4.354 
120.044205 5.803111 
121.028236 55.562256 
121.052208 0.190863 
122.023529 0.370508 
122.031563 3.424309 
122.036125 1.611021 
122.994972 0.490477 
123.007591 0.613862 
123.03141 0.419771 
123.04393 3.760296 
123.080223 0.190296 
123.518219 0.056728 
124.003113 0.044321 
124.015381 4.432864 
124.039139 20.007984 
125.010887 0.490057 
125.023178 45.944057 
125.04274 0.386512 
125.051613 0.070027 
125.059517 0.486715 
125.096375 0.05246 
126.02652 2.667061 
127.038864 3.279904 
127.058189 0.047724 
128.034088 0.343509 
128.612411 0.064271 
129.01799 0.090627 
129.033279 0.13667 
129.618546 0.053423 
131.03653 4.61539 
131.049011 1.26716 
132.044388 2.432411 
132.5327 0.043176 
133.015884 0.255702 
133.047791 0.066528 
134.02359 1.050919 
134.059906 0.14755 
135.031509 0.127966 
135.044006 0.619754 
135.080109 0.063598 
135.242172 0.047244 
136.039261 3.584093 
137.023148 5.401536 
137.047119 2.133292 
137.059708 0.363791 
137.304855 0.053779 
137.635178 0.052955 
138.012848 0.247377 
138.018509 39.692329 
138.031036 4.656676 
138.054993 2.054482 
139.002655 0.12037 
139.008347 0.06653 
139.022034 1.157801 
139.038925 100.0 
139.997208 0.063162 
140.034256 1.029076 
140.042252 6.869414 
140.047852 0.060818 
141.018295 0.875936 
141.03096 0.043483 
141.090988 0.705741 
142.064957 1.393419 
142.890015 0.043556 
143.049393 0.123894 
143.25296 0.04633 
144.044327 6.207583 
145.028366 17.424011 
145.064606 0.065701 
146.024185 0.066889 
146.031754 0.890971 
146.060013 0.675874 
147.03154 1.270043 
147.044098 3.771213 
148.039291 39.344124 
148.500381 0.059778 
149.009094 0.052818 
149.023376 6.193996 
149.042694 2.899573 
149.049957 0.047806 
149.826309 0.04632 
150.018631 2.956882 
150.055054 0.305462 
151.002594 0.601957 
151.026505 1.473883 
151.039062 0.161292 
151.075516 0.394619 
151.134003 0.04263 
151.632095 0.043935 
152.034286 0.288336 
152.070984 0.053244 
153.005783 2.916079 
153.01825 10.813172 
153.042053 0.149652 
153.054337 0.060543 
153.091034 1.404765 
154.013535 0.245713 
154.021774 0.192512 
154.093369 0.058533 
155.034073 0.919854 
155.070679 0.051125 
155.085571 0.621501 
155.66507 0.046111 
155.811356 0.052443 
155.978699 0.04367 
156.029221 5.224612 
156.037399 0.151929 
156.044418 12.761364 
156.056778 0.242306 
156.080856 8.989517 
157.047638 0.168598 
157.064819 0.677571 
157.08429 0.374488 
158.036255 0.766595 
158.060104 26.918951 
159.044144 3.51507 
159.064575 5.007376 
159.080444 0.082646 
160.039383 57.881554 
160.046967 1.361886 
160.58461 0.06121 
161.042557 4.682626 
162.018707 1.038185 
162.055054 15.586422 
162.70874 0.052314 
163.026901 0.196872 
163.03894 5.072121 
164.034424 7.824392 
164.910324 0.048649 
165.018311 10.276663 
165.042206 10.0545 
165.05423 0.058723 
166.026276 3.089645 
166.050522 0.367499 
167.070175 0.130745 
168.029236 13.389162 
168.065582 4.12008 
168.897964 0.050033 
169.06459 0.936427 
169.085449 0.065107 
170.045334 0.853892 
170.06015 5.638532 
171.044022 0.054398 
171.080643 2.427798 
172.039398 3.599452 
172.075516 0.052893 
173.023529 2.792699 
173.046783 0.077278 
173.059753 0.792084 
174.018677 1.35417 
174.031479 0.121091 
174.05513 7.398963 
175.026535 2.776347 
175.039154 6.863154 
175.058701 0.143696 
175.075638 0.259531 
175.659546 0.061185 
176.034454 25.886757 
176.042007 1.009769 
177.037643 3.579577 
177.054306 0.051803 
179.070648 0.813052 
179.093872 0.059703 
180.029663 0.351473 
180.065659 4.64913 
180.081161 0.562828 
181.037155 3.383744 
181.050003 1.224759 
181.065048 0.257982 
181.086029 0.08049 
182.044937 0.244752 
182.543808 0.041136 
182.602814 0.049838 
183.070419 0.04468 
183.08075 2.829209 
184.039474 4.508246 
184.051834 0.176967 
184.075897 3.020994 
184.288406 0.052697 
185.047485 1.335254 
185.059906 0.580542 
186.055267 8.404098 
187.039474 0.295392 
187.058594 0.356153 
187.0755 1.343737 
188.0345 46.682934 
188.070816 0.266333 
189.037964 3.985632 
189.245316 0.056412 
190.050201 1.515764 
191.021606 2.832608 
191.07074 0.104634 
192.02948 9.758169 
192.065781 1.649763 
193.032852 0.167117 
193.085907 0.049534 
194.045181 0.711662 
194.369003 0.056006 
195.056122 0.04961 
195.065536 3.948535 
196.060654 1.027932 
196.076248 1.477358 
197.060089 0.581855 
197.080933 0.6595 
198.055222 1.318982 
198.091812 6.671456 
199.02655 0.13301 
199.063644 1.553915 
199.07576 4.18994 
199.095108 0.256883 
200.034637 34.113033 
200.070908 43.269352 
201.038696 3.336696 
201.053726 0.257673 
201.074356 5.02905 
202.01416 0.275207 
202.050293 13.085164 
202.086868 0.052668 
202.6306 0.047454 
203.034576 0.108984 
203.053757 0.416729 
204.065857 0.063832 
206.045135 5.832146 
207.065186 0.062549 
207.080338 0.183645 
208.076172 3.002932 
209.032562 1.211138 
209.07962 0.206456 
211.062744 0.212712 
211.075027 0.062599 
212.034042 0.116217 
212.070999 8.82945 
213.009659 0.064589 
213.055176 1.947889 
213.074585 0.400481 
213.545914 3.596742 
213.668686 0.054838 
214.050339 3.080227 
214.086853 2.425099 
215.070831 7.162963 
216.029739 3.341288 
216.074265 0.124396 
217.037354 1.209396 
217.895142 0.039792 
218.008911 1.482105 
218.04538 5.570214 
218.339767 0.050164 
219.028748 0.136253 
219.065231 0.060387 
220.642609 0.042499 
223.06218 0.055746 
223.076813 0.067483 
224.056152 8.207739 
224.071075 10.787303 
224.092255 2.699264 
225.055954 1.70564 
225.07486 1.153683 
226.050491 3.378764 
226.086945 9.352155 
227.058502 14.186434 
227.070511 1.870557 
227.090469 0.781046 
228.0298 0.255611 
228.066086 7.060596 
229.050339 0.139379 
229.069656 0.293963 
230.045197 0.455504 
231.065994 0.072446 
232.952194 0.064031 
236.354385 0.048211 
238.050461 0.056832 
240.066284 3.103688 
240.322449 0.048931 
240.879807 0.049536 
241.072906 0.187987 
242.081879 19.002045 
243.065918 4.955682 
243.085464 2.291056 
250.084808 0.236936 
251.071243 1.487689 
251.092453 5.657228 
252.065964 7.918657 
252.096313 1.188713 
253.050568 2.960092 
253.07106 2.095266 
254.082092 0.316486 
254.111328 3.69453 
255.053482 5.234658 
255.100357 0.051251 
255.232788 0.465409 
256.060974 1.388932 
259.048462 0.060499 
262.145081 0.340411 
263.277527 0.06712 
263.42923 0.055286 
268.061615 4.278005 
268.829895 0.066992 
269.066254 0.188173 
270.077209 15.464734 
270.950256 0.059036 
271.062347 0.270474 
271.080505 1.698257 
282.995178 1.395441 
284.973694 0.104602 
286.072144 1.870365 
292.083618 0.054466 
295.058197 0.052947 
295.323792 0.051804 
295.893646 0.052209 
296.056183 4.274814 
297.058746 0.424877 
299.091644 0.132042 
304.204498 0.060624 
309.114014 0.797469 
311.168915 0.615358 
332.240265 0.045914 
341.145142 0.050615 
351.136292 0.072168 
353.524445 0.066483 
375.44516 0.058134 
376.546051 0.051564 
379.153503 0.063382 
385.129242 0.764502 
386.132751 0.65196 
387.107635 0.276348 
388.148071 0.565376 
388.920746 0.057158 
395.779602 0.057982 
396.110718 0.061745 
398.970032 0.063172 
419.194519 0.055631 
427.195282 0.047095 
429.142212 0.050614 
430.117065 0.053824 
431.079102 0.051324 
431.158356 0.070124 
431.22522 0.582773 
438.913147 0.049431 
446.149689 0.061343 
454.195007 0.069903 
457.305054 0.060459 
END IONS

