BEGIN IONS
PEPMASS=468.266
CHARGE=1+
COMPOUNDNAME=TOBRAMYCIN
LIBRARYQUALITY=3
SMILES=N/A
INCHIKEY=NLVFBUXFDBBNBW-PBSUHMDJSA-N
INCHI=InChI=1S/C18H37N5O9/c19-3-9-8(25)2-7(22)17(29-9)31-15-5(20)1-6(21)16(14(15)28)32-18-13(27)11(23)12(26)10(4-24)30-18/h5-18,24-28H,1-4,19-23H2/t5-,6+,7+,8-,9+,10+,11-,12+,13+,14-,15+,16-,17+,18+/m0/s1
MSLEVEL=2
SOURCE_INSTRUMENT=N/A-ESI-QFT
FILENAME=library_mgf.mgf
SEQ=*..*
IONMODE=positive
ORGANISM=MONA
NAME=TOBRAMYCIN [M+H]+
PI=MoNA
DATACOLLECTOR=MoNA:VF-NPL-QEHF011824
PUBMED=N/A
SUBMITUSER=mwang87
TAGS=
SPECTRUMID=CCMSLIB00004702887
SCANS=11824
50.134628 0.021821 
50.233688 0.035954 
50.434032 0.02242 
50.475025 0.024336 
50.79937 0.034203 
51.152943 0.031546 
51.32206 0.033462 
51.459194 0.025296 
53.002728 0.109294 
53.639908 0.023794 
54.137924 0.025576 
54.994125 0.02281 
55.018417 0.048243 
55.054882 1.733213 
55.144169 0.032856 
55.417767 0.034407 
55.64962 0.023132 
56.383106 0.026192 
56.869053 0.032935 
57.034019 0.903193 
57.070557 26.197336 
57.072121 0.753186 
57.455898 0.024961 
58.041866 0.025888 
58.065685 0.207625 
58.073849 1.104754 
58.196484 0.022412 
58.934376 0.02453 
59.049812 4.495203 
59.051365 0.0516 
59.061043 3.326598 
59.062389 0.034329 
59.086235 0.023462 
59.990906 3.793532 
59.992268 0.022172 
60.044907 0.14153 
60.919041 0.022727 
61.011284 5.154225 
61.986572 0.033962 
62.019035 0.431979 
62.060699 3.230079 
62.204048 0.023695 
62.844009 0.029476 
62.864685 0.033252 
62.982147 0.851349 
62.983807 0.035878 
64.023689 0.030123 
64.224495 0.024261 
64.618637 0.023262 
64.815102 0.032844 
65.039055 0.09271 
65.225861 0.022714 
65.805496 0.024952 
65.987846 0.024347 
66.449806 0.025824 
66.803261 0.026536 
67.05481 8.076292 
67.056717 0.086121 
67.680519 0.033395 
67.941917 0.024524 
67.953522 0.030022 
68.05806 0.223603 
69.033798 0.028447 
69.070457 3.680216 
69.850128 0.024813 
69.89444 0.020622 
69.997795 0.031001 
70.065598 0.137374 
70.697533 0.024779 
70.888809 0.031099 
71.049561 0.735608 
71.086128 7.641617 
71.088272 0.058468 
71.629028 0.027414 
71.847961 0.020878 
72.044876 0.237886 
72.081169 0.571739 
72.089249 0.183175 
72.218849 0.022061 
73.028748 1.271953 
73.047256 0.178034 
73.065147 0.856447 
74.096909 1.978146 
74.544907 0.02481 
74.828468 0.022087 
74.846474 0.022361 
75.04409 0.055347 
75.055664 0.680164 
75.78772 0.025605 
76.076111 0.113554 
76.510536 0.022969 
78.300247 0.023981 
78.37252 0.030436 
78.861786 0.031224 
79.021675 2.007406 
79.054504 1.19882 
80.054779 0.497157 
80.057915 0.030598 
80.703461 0.023351 
80.948364 4.080682 
80.950981 0.051356 
81.000359 0.022205 
81.018822 0.148426 
81.070419 6.806638 
82.073456 0.131042 
82.576569 0.023207 
82.945358 1.824283 
83.049423 0.391069 
83.086044 4.483281 
84.080994 0.622624 
84.089203 0.049649 
85.028709 0.066005 
85.039864 0.145219 
85.065216 1.977967 
85.101707 5.60326 
85.722145 0.02346 
86.060287 0.124303 
86.096718 0.51741 
86.10482 0.079987 
87.044548 9.950564 
88.075943 0.17892 
88.978432 0.181888 
89.060181 27.032166 
89.063194 0.107537 
90.063225 0.875587 
90.947845 0.057378 
91.054367 1.740538 
91.057533 2.359283 
91.060684 0.033656 
91.176193 0.021016 
91.605804 0.025018 
92.057457 0.03425 
93.054352 0.220915 
93.070259 2.250844 
95.049561 12.899946 
95.085953 7.119354 
95.257271 0.022015 
96.052673 0.46267 
96.081062 0.204293 
96.08905 0.271179 
96.921844 0.027925 
97.064903 1.592029 
97.101555 2.807034 
98.096596 0.165566 
99.044167 0.266261 
99.080498 1.034439 
99.116875 0.197246 
99.231537 0.022771 
99.285042 0.023496 
99.800331 0.023892 
100.075867 1.457778 
100.112114 0.084376 
101.003471 1.566969 
101.060036 2.98023 
101.267807 0.026556 
102.054672 0.035085 
102.06752 0.313755 
102.091667 2.588663 
103.038872 0.056082 
103.054253 0.827017 
104.436882 0.023069 
104.992302 0.668582 
105.033661 0.169018 
105.069946 1.387744 
105.07328 0.033065 
106.237732 0.038915 
107.070168 0.874423 
107.085808 2.488786 
107.96682 0.14017 
108.089066 0.022318 
108.724487 0.030675 
109.064743 0.364909 
109.101425 9.531538 
109.493469 0.02909 
110.104393 0.652054 
111.044014 0.191099 
111.080315 1.120338 
111.116791 0.911247 
111.242485 0.028652 
112.075668 0.116052 
113.059624 0.439383 
113.095978 0.235623 
113.132347 0.047133 
113.723221 0.03565 
115.075287 0.459201 
116.05304 16.770905 
116.070518 0.037761 
116.984558 0.106436 
117.056084 0.980456 
117.070137 0.061781 
117.090965 0.657525 
118.048492 0.692987 
118.420601 0.023121 
118.971405 0.161993 
119.085609 2.741626 
119.660942 0.025933 
120.080879 0.036375 
121.064911 2.605586 
121.101234 2.260886 
122.94075 0.030066 
123.043892 0.027535 
123.080261 1.069799 
123.116852 3.622914 
123.546875 0.025867 
124.119759 0.049318 
124.765785 0.038321 
125.059303 0.04322 
125.095894 0.485737 
125.132362 0.04325 
126.127449 0.228076 
127.111298 0.0525 
128.106705 0.266956 
128.143387 14.55684 
128.953094 0.042811 
129.054337 0.046642 
129.091629 0.033377 
129.146484 1.166902 
130.158829 0.377423 
130.999802 0.339512 
131.048828 1.800352 
131.069901 0.05962 
131.085449 0.695102 
132.986771 0.064863 
133.064636 0.088624 
133.085831 10.86786 
133.0914 0.047369 
133.100952 2.133433 
134.089066 0.283111 
134.095535 0.024699 
134.955826 0.454914 
134.995956 0.13479 
135.002518 0.928044 
135.080338 2.131587 
135.116592 1.66539 
136.111572 0.071235 
137.095718 0.628204 
137.132019 0.700938 
138.127533 0.123584 
138.67337 0.022932 
138.689682 0.024606 
139.050934 0.034652 
139.055817 0.031003 
139.075027 0.125117 
139.111343 0.133251 
139.135391 0.143766 
140.067825 0.251226 
140.143188 1.872898 
140.958893 0.334492 
141.020615 0.031933 
141.054108 0.028112 
141.145828 0.037322 
141.19722 0.022303 
142.057922 0.038944 
142.158798 0.156362 
142.938263 0.270564 
143.085358 0.223239 
143.760208 0.024802 
145.015335 0.751067 
145.064041 0.03484 
145.100845 1.046858 
147.011734 0.025879 
147.038727 0.024977 
147.080048 0.455568 
147.116653 10.181863 
147.910172 0.024599 
148.111893 0.027567 
148.119888 0.986503 
149.010742 0.064007 
149.059311 0.618666 
149.095764 0.469135 
149.132065 0.473182 
150.13559 0.037845 
150.236603 0.035599 
150.950699 1.243595 
151.095749 0.100256 
151.111298 0.252808 
151.147766 0.038751 
152.95134 1.928331 
152.966293 0.359499 
152.989075 0.064558 
153.020203 0.247491 
153.071487 0.087496 
153.12706 0.089561 
153.412506 0.034714 
153.959091 2.548056 
154.121857 0.081687 
154.15831 0.037699 
154.983505 0.029535 
155.036102 0.240995 
155.08667 0.025389 
155.106537 0.08315 
156.137863 1.432937 
156.716614 0.025402 
157.015366 0.380234 
157.10083 0.4641 
158.010773 0.048402 
158.994797 1.719432 
159.031021 0.27087 
159.080261 0.110542 
159.116684 2.852651 
159.142441 0.037181 
160.972229 0.025568 
161.095764 1.756065 
161.132248 1.277864 
162.989304 0.025794 
163.026169 0.081197 
163.055634 1.126465 
163.074814 0.060532 
163.111267 1.443267 
163.147659 0.747574 
164.920349 2.249382 
164.966705 0.042373 
164.987686 4.977834 
165.071426 0.252622 
165.126343 0.04873 
166.210403 0.025594 
166.916199 0.023768 
167.036118 0.470111 
167.054916 0.063132 
167.086807 0.026688 
168.138535 0.076394 
168.961395 0.330746 
168.982361 0.379897 
169.051956 0.683555 
169.10051 0.027951 
169.120758 0.029438 
170.961655 0.956114 
170.994446 0.400278 
171.004837 0.38713 
171.031204 0.435929 
171.062454 0.025705 
171.116455 0.566543 
171.443695 0.026295 
172.11525 9.234528 
173.010574 3.908745 
173.046875 0.045329 
173.079407 0.034171 
173.095779 0.344997 
173.118179 1.533545 
173.132431 3.415796 
174.110809 0.310503 
174.135452 0.082421 
174.989731 3.047504 
175.09639 0.036759 
175.111481 0.329776 
175.147736 1.532827 
176.987717 7.085089 
177.005463 4.237817 
177.071625 0.239644 
177.09024 0.070629 
177.111771 1.679513 
177.126984 0.450014 
177.164261 0.035655 
177.990601 0.028901 
179.003296 2.560519 
179.087097 0.260569 
179.105774 0.098449 
179.80452 0.039405 
179.886063 0.023942 
180.893753 0.31598 
181.051636 1.101905 
181.102371 0.100809 
181.121872 0.028582 
182.047058 0.037834 
182.811401 0.034388 
182.998032 0.313374 
183.067719 0.060372 
183.081543 0.109637 
183.116272 0.189855 
184.042252 0.076568 
184.800552 0.03865 
184.953888 0.028365 
185.010361 1.27068 
185.046875 0.262109 
185.083359 0.022761 
185.095917 0.055249 
185.13208 0.538762 
185.948868 1.725215 
187.026184 2.146961 
187.062561 0.037204 
187.111465 0.099029 
187.147919 0.15482 
187.955231 0.023957 
188.021088 0.047391 
189.005371 5.805836 
189.015381 1.985163 
189.090454 0.034455 
189.126938 0.255968 
189.163605 0.076839 
191.00322 1.816328 
191.020905 1.923217 
191.087341 0.054152 
191.106171 0.145743 
191.142883 3.269822 
192.146164 0.105455 
192.285797 0.021953 
192.961273 0.615211 
193.018524 0.083428 
193.102753 0.817192 
194.115097 0.500768 
194.961624 0.167377 
194.998489 1.396203 
195.067352 1.210561 
195.116943 0.306374 
196.052765 0.470472 
197.132782 0.069033 
198.964584 0.252906 
199.026062 1.759819 
199.063156 0.048379 
199.111343 0.459286 
199.147949 0.02623 
199.994217 0.05491 
201.04184 0.36217 
201.127289 2.570021 
202.130234 0.061885 
202.967255 0.169364 
203.021164 2.729048 
203.086929 0.293896 
203.105789 0.028726 
203.142731 0.488714 
204.088058 0.059318 
204.105637 0.025075 
204.135223 0.030462 
204.961761 0.389918 
205.006561 0.150131 
205.018402 0.321166 
205.046783 0.185501 
205.102646 1.386558 
206.004059 0.906107 
206.015808 0.025806 
207.001678 0.397837 
207.054291 0.02725 
207.068512 0.077852 
207.08168 0.067609 
207.136642 0.029479 
208.977448 1.940985 
209.013641 0.072792 
209.083115 1.643152 
209.094193 0.031403 
209.132904 0.411041 
210.184982 0.53896 
210.971878 0.23588 
211.112015 0.029653 
211.147781 0.043469 
211.18811 0.033003 
211.977982 0.117631 
212.934433 0.027634 
212.972229 0.081501 
213.041733 0.773307 
213.127045 0.988376 
213.634109 1.054185 
213.645523 1.176844 
213.657318 0.553983 
214.260651 0.022704 
214.801941 0.030706 
215.057281 0.273513 
215.088425 0.252535 
215.128586 0.037925 
215.142517 0.056777 
216.042465 0.492287 
217.036652 1.325726 
217.10318 0.661082 
217.157349 0.025476 
217.967438 0.038918 
218.003922 0.147829 
218.029892 0.038118 
218.986847 0.031635 
219.033005 0.083278 
219.118668 0.151547 
219.137787 2.509632 
219.173981 1.796162 
219.983521 1.594866 
220.019669 1.118455 
220.139648 0.05369 
220.392868 0.027974 
221.017532 0.054051 
221.133545 0.131998 
222.127136 0.067399 
222.993362 0.154856 
223.063507 0.299728 
223.099136 0.136697 
223.11203 0.271864 
223.978836 0.084001 
224.06311 0.067177 
225.042358 1.482536 
225.060272 0.56338 
226.008774 0.076094 
226.042404 0.151093 
226.061279 0.037655 
226.180038 0.065192 
226.216278 0.035822 
227.02211 0.066456 
227.039429 1.28968 
227.057144 0.42189 
227.106674 0.072451 
227.142532 0.059904 
228.024704 0.474356 
228.038742 0.059577 
229.000366 0.144598 
229.036484 0.02807 
229.073303 0.467636 
229.895905 0.130206 
230.040482 0.738336 
231.038177 0.027122 
231.051636 0.152031 
231.1185 0.06799 
231.983505 1.461768 
233.133896 0.315125 
233.153168 0.17776 
233.999008 1.716604 
234.153458 0.369109 
234.464096 0.039478 
235.113724 0.049558 
235.149704 2.969469 
236.99588 0.157088 
237.008514 0.327635 
237.994095 8.838834 
238.993423 0.159117 
239.990265 0.103235 
240.009766 0.112892 
240.231583 0.112494 
241.122482 0.028479 
241.158096 0.797941 
241.194534 0.342128 
243.088837 0.051554 
243.117874 0.02645 
243.666397 0.034776 
244.137512 0.601009 
245.134018 3.632754 
246.035156 1.161289 
246.137512 0.216442 
247.012375 0.028652 
247.113556 0.106302 
247.906082 0.227282 
249.12883 0.848872 
249.165054 1.379023 
250.177444 0.822412 
250.307816 0.028489 
251.046082 0.16167 
251.179123 0.85186 
252.009613 9.083146 
252.950928 0.028166 
253.011307 0.471677 
254.005173 0.171046 
255.089294 0.033037 
255.135452 0.024495 
255.173645 0.070796 
255.231598 0.199414 
257.102417 0.03544 
258.808655 0.055824 
259.11499 1.013968 
259.149628 0.245398 
260.01474 1.156598 
261.12854 0.031038 
261.164734 0.636578 
262.030396 2.149631 
262.147095 0.026899 
263.020355 0.115927 
263.144501 0.329243 
263.915924 0.028854 
264.027924 0.681556 
266.024811 0.343177 
266.171173 0.026082 
267.175049 0.089674 
268.263641 0.053639 
269.189362 1.656376 
269.206696 0.329565 
270.191833 0.031687 
270.910828 0.231863 
271.343109 0.026999 
275.812378 0.034406 
276.163605 0.970835 
277.160095 4.136659 
278.163879 0.370071 
279.174133 0.862936 
280.040466 0.23764 
281.030975 0.557014 
281.264191 0.03338 
281.34021 0.022435 
281.911194 0.255304 
282.038727 4.702608 
283.042542 0.203002 
283.174713 0.087472 
284.034058 0.076103 
284.152557 0.093009 
284.899567 0.137073 
285.009247 0.250651 
286.893494 0.076899 
287.006714 0.12518 
287.200684 0.085411 
288.921112 1.099185 
290.946899 0.510721 
294.172424 0.039254 
295.170258 0.269908 
296.936646 0.026838 
297.184448 1.889407 
298.188446 0.034222 
299.042358 0.191029 
299.061005 1.346274 
300.061401 0.250719 
301.058502 1.867248 
302.059235 0.491362 
302.121552 0.083221 
303.056702 1.074286 
304.046661 0.499561 
304.107697 0.096516 
304.230316 0.028859 
305.052277 0.085009 
306.918793 0.173963 
306.932159 0.139868 
307.13562 0.238913 
308.000641 0.107542 
309.133179 0.105635 
309.150665 1.513426 
310.060059 0.067549 
310.134949 0.073257 
310.15329 0.144576 
311.149628 0.152055 
311.167267 0.360531 
311.188202 0.10101 
311.29425 7.496898 
312.1492 0.488295 
312.169464 0.290401 
312.29718 1.166906 
313.166504 0.050148 
313.19632 0.147225 
314.01062 0.701142 
314.120422 0.041953 
315.194031 0.125991 
315.967041 0.026281 
317.145508 0.04881 
317.821045 1.478786 
318.075165 0.053518 
318.239746 1.563869 
318.828003 1.318265 
319.070068 0.963547 
319.243744 0.03268 
319.83551 1.028821 
322.914124 0.337583 
327.161163 1.674747 
327.288452 0.036745 
328.181396 0.104669 
328.320831 1.498812 
328.832977 0.263513 
328.925385 0.450833 
329.176117 6.051081 
329.198578 0.100463 
329.324615 0.046614 
330.17981 1.29691 
330.91272 0.063172 
331.177399 0.858989 
331.199585 0.442664 
332.175629 0.411915 
332.195801 1.584609 
333.186951 0.025841 
334.204529 0.028398 
334.843201 0.050157 
335.830078 4.425585 
336.838654 19.976564 
337.140289 0.352728 
337.841614 2.417107 
338.842102 0.14737 
341.191833 0.993913 
341.231628 0.025331 
343.193878 0.034237 
344.823059 0.038062 
344.975403 0.309361 
345.103943 0.091703 
345.223389 0.137521 
346.093506 3.153846 
347.097961 0.525613 
347.187836 3.2241 
348.109711 3.801379 
348.19043 0.46509 
348.212921 0.042978 
348.923798 0.254055 
348.952362 0.509855 
349.112183 0.458594 
349.134033 0.046694 
349.187561 0.731207 
349.209991 0.241025 
350.106049 0.041594 
350.185089 0.59727 
350.206635 0.987343 
350.853943 0.098315 
350.946869 0.198913 
351.059845 0.517484 
351.845306 0.027302 
352.833008 0.618573 
353.841095 19.456367 
354.848297 6.183938 
354.934998 0.024885 
355.079956 0.044864 
355.207794 0.131805 
355.848206 0.489886 
359.027496 0.304981 
359.06073 0.028438 
359.202057 1.186116 
359.831055 0.040918 
360.108795 0.208286 
360.206085 0.024396 
360.838623 6.918916 
361.025665 0.023991 
361.11731 2.612072 
361.841278 0.669387 
362.119904 0.178687 
363.112793 0.048938 
364.104095 0.482999 
365.196991 0.031824 
366.119843 0.831681 
367.197906 0.099985 
367.856995 0.810922 
368.194885 0.025523 
368.351959 13.309288 
368.865601 0.042682 
369.355225 2.807445 
369.835785 3.125502 
370.843567 2.896573 
371.162567 0.039356 
371.851746 3.052481 
372.220734 0.367552 
373.217499 2.769831 
374.221436 0.271838 
374.911835 0.045281 
375.241058 0.030666 
376.318329 0.262689 
376.832306 5.575107 
377.840698 6.979503 
378.848572 3.481688 
379.851532 0.145931 
380.388794 0.028062 
383.852509 0.031386 
384.857819 0.034464 
385.178131 0.628384 
387.846954 1.585778 
389.18042 12.824238 
390.157074 0.183582 
390.183105 2.625685 
390.209198 0.788446 
390.712219 0.208139 
391.180115 5.259063 
391.20285 0.36071 
392.201111 4.925512 
392.847015 0.261174 
393.106995 1.673418 
393.851593 1.751045 
394.297882 0.095728 
394.844055 100.0 
395.846893 15.167906 
396.848053 2.680091 
399.215332 2.901236 
399.716949 1.420391 
400.21637 0.359363 
401.147797 0.075116 
402.288574 0.058364 
403.164032 6.70578 
404.167572 1.27825 
405.161102 0.326731 
406.225464 0.053007 
407.191193 2.93058 
408.193512 0.378294 
408.859497 6.619576 
409.191254 2.103522 
409.862793 0.894607 
410.210571 0.64802 
411.046143 1.409683 
411.248413 0.138522 
411.845459 2.389296 
412.04837 0.045123 
412.25531 0.036059 
412.854401 28.603909 
413.041229 0.065004 
413.856537 3.828774 
414.857727 0.504467 
420.300232 0.116656 
421.20694 0.396632 
421.28183 0.032222 
426.869843 1.256581 
429.856842 0.063983 
433.120209 0.220885 
434.315765 0.506252 
435.154541 1.088892 
435.219513 8.648508 
435.871887 0.031049 
436.156006 0.057237 
436.222778 1.847908 
437.225586 0.138701 
447.34668 1.362812 
448.350586 0.118527 
449.199158 0.0388 
453.857147 2.107912 
466.233887 0.764545 
466.284027 0.116787 
466.331329 0.192716 
466.43573 0.132317 
466.497864 1.227739 
466.53363 5.747621 
467.107971 35.620434 
467.246887 8.827175 
467.305817 0.229654 
467.334839 0.126673 
467.368896 0.601426 
467.404419 0.257703 
467.500977 0.552239 
467.537323 2.56479 
467.570831 0.029129 
467.810089 0.060514 
468.110413 9.315882 
468.250519 1.708451 
468.339294 0.051542 
468.371643 0.149326 
468.440765 1.48015 
468.54129 0.201746 
469.104523 7.042732 
469.203583 1.096384 
469.242798 1.343989 
469.314636 2.305838 
469.385468 24.074429 
469.445007 0.372789 
470.10611 0.86944 
470.205566 0.038973 
470.247711 0.149379 
470.318695 0.223975 
470.389679 3.202261 
470.475403 0.033312 
475.190857 0.300385 
493.205872 0.03775 
END IONS

