BEGIN IONS
PEPMASS=284.186
CHARGE=1+
COMPOUNDNAME=(1S,8R,9R)-8-hydroxy-4-(propan-2-ylidene)-10-oxatricyclo[7.2.1.01,5]dodecane-8-carboxylic acid
LIBRARYQUALITY=3
SMILES=N/A
INCHIKEY=IOYVXXQKVQKQIG-ZJPTYJIISA-N
INCHI=InChI=1S/C15H22O4/c1-9(2)10-3-5-14-7-12(19-8-14)15(18,13(16)17)6-4-11(10)14/h11-12,18H,3-8H2,1-2H3,(H,16,17)/t11?,12-,14-,15-/m1/s1
MSLEVEL=2
SOURCE_INSTRUMENT=N/A-ESI-QFT
FILENAME=library_mgf.mgf
SEQ=*..*
IONMODE=positive
ORGANISM=MONA
NAME=(1S,8R,9R)-8-hydroxy-4-(propan-2-ylidene)-10-oxatricyclo[7.2.1.01,5]dodecane-8-carboxylic acid [M+NH4]+
PI=MoNA
DATACOLLECTOR=MoNA:VF-NPL-QEHF021471
PUBMED=N/A
SUBMITUSER=mwang87
TAGS=
SPECTRUMID=CCMSLIB00004712534
SCANS=21471
50.310711 0.12802 
51.940334 6.65772 
52.233719 0.124288 
52.940449 0.172714 
53.002533 1.762322 
53.038937 4.062842 
53.229786 0.153412 
53.997833 0.072399 
54.03426 0.194569 
54.592632 0.162542 
54.741241 0.052711 
54.937843 0.386384 
55.018196 8.626696 
55.01944 0.083236 
55.054565 29.275269 
55.9347 2.864338 
55.945766 0.087348 
56.049774 4.314867 
56.057961 0.370212 
56.942616 0.190518 
56.965092 14.874304 
57.033798 4.751807 
57.053249 0.062443 
57.070194 33.64069 
57.660488 0.15414 
57.726059 0.183611 
57.935097 1.653904 
58.06543 8.49532 
58.073547 0.480401 
58.852158 0.283441 
59.049412 6.179977 
59.930584 0.177998 
60.044662 0.196746 
60.055927 0.161475 
60.081036 19.691648 
60.241714 0.049649 
61.01088 10.472163 
61.028629 0.149443 
61.038296 0.049581 
61.084408 0.070004 
62.0187 3.159206 
62.060165 0.067763 
62.437508 0.151597 
62.981949 0.953731 
62.990036 0.76486 
63.007271 0.190112 
63.026497 1.47223 
63.998009 0.861925 
65.038727 1.685798 
65.813103 0.289312 
66.638245 0.266749 
67.05439 33.014114 
67.924507 0.068933 
67.934937 0.072264 
68.013237 0.167346 
68.049637 1.892971 
68.057747 0.690853 
68.942833 1.131729 
68.997246 0.207485 
69.033615 6.250992 
69.04483 0.739036 
69.069992 22.420544 
70.028732 0.362205 
70.065247 12.318091 
70.073326 0.415339 
70.288605 0.05786 
70.942039 0.070045 
70.957993 0.747319 
71.012901 0.13517 
71.04924 6.958817 
71.085617 15.46552 
71.087708 0.109112 
71.929375 0.05549 
71.940353 0.209967 
72.026085 0.057155 
72.044434 2.710578 
72.078583 0.050655 
72.080894 1.513608 
72.088959 0.189608 
72.937195 5.082464 
73.02845 2.159616 
73.046883 16.167219 
73.064873 1.21826 
74.04641 0.838576 
74.050323 0.36142 
74.060104 0.646773 
74.096375 0.056963 
75.026352 0.162094 
75.043732 4.612014 
75.372124 0.238481 
77.005508 0.064081 
77.038651 0.076271 
78.013466 0.742954 
78.276108 0.159497 
78.70327 0.057933 
79.021271 10.489659 
79.023811 0.05061 
79.054283 34.235939 
79.458733 0.197669 
80.007324 0.169429 
80.02047 0.069563 
80.04953 0.847174 
80.057648 1.247149 
80.633492 0.307131 
81.000221 0.458601 
81.017792 0.135382 
81.033562 4.00496 
81.044777 1.149133 
81.069931 35.806019 
82.052574 1.218754 
82.065147 1.950135 
82.073318 2.078438 
82.075981 0.056878 
82.947853 0.902177 
82.951118 0.058861 
82.997223 0.145146 
83.012825 0.669575 
83.049217 7.09742 
83.051659 0.097455 
83.06041 1.763148 
83.085533 5.519934 
83.868889 0.325026 
84.044456 2.32657 
84.052704 0.325622 
84.080849 3.964106 
85.028473 2.406089 
85.064873 2.293337 
85.101196 2.096296 
85.439034 0.201774 
86.060036 4.160931 
86.09642 2.358778 
86.266403 0.152461 
87.044128 7.598915 
87.046806 0.095335 
87.06646 0.066098 
87.675095 0.303506 
88.075722 0.197302 
88.353897 0.058571 
88.648872 0.146853 
88.952499 0.157389 
88.968575 0.449577 
89.059769 48.57362 
89.062889 0.340119 
89.951073 0.078265 
89.96376 0.212859 
90.063179 1.302062 
90.947739 2.920874 
91.054283 26.786423 
91.057434 37.364513 
92.057236 5.841953 
92.060684 1.758177 
92.518547 0.222277 
93.033722 0.173462 
93.036789 0.702565 
93.044998 0.176515 
93.054298 11.301391 
93.057373 0.359299 
93.060631 0.067796 
93.069969 23.421083 
93.073235 0.132011 
94.065208 1.649415 
94.073334 1.727116 
95.015884 0.092395 
95.049164 11.159239 
95.060394 1.953678 
95.085548 22.665876 
96.044434 0.488378 
96.052635 0.077575 
96.080841 0.99026 
96.088943 0.999698 
97.028488 0.358622 
97.039635 0.210039 
97.064865 4.578764 
97.076073 0.249823 
97.101234 1.199807 
97.999802 0.247501 
98.060165 0.914449 
98.096558 1.020121 
99.044128 1.403659 
99.055473 0.067473 
99.080521 0.871685 
100.075653 2.863465 
100.112152 1.407243 
100.958321 0.064573 
100.99115 1.526717 
101.059784 1.160414 
102.948532 0.058008 
103.039146 0.244071 
103.054276 5.510035 
104.049667 0.055567 
104.057755 0.096836 
104.070793 0.049865 
104.669754 0.185065 
104.964058 0.05481 
105.033569 0.334486 
105.044846 0.591954 
105.069962 45.734711 
106.065224 0.80255 
106.073242 3.51741 
106.925667 0.162572 
107.049164 5.163996 
107.060303 0.225701 
107.070343 0.582542 
107.085632 16.150953 
108.044487 0.252546 
108.052139 0.079944 
108.055946 0.070591 
108.068848 0.146918 
108.080872 1.133201 
108.08889 0.683259 
108.958305 0.569844 
109.02832 0.456158 
109.051102 0.658638 
109.064873 6.110043 
109.076157 0.1811 
109.101227 6.316699 
109.293533 0.360687 
110.060158 0.735449 
110.071342 7.142649 
110.096626 0.174939 
110.104378 0.146629 
111.044136 2.31765 
111.055267 1.470317 
111.080513 0.950054 
112.050552 0.065072 
112.075874 0.243812 
112.112282 0.175357 
113.03479 0.162682 
113.059723 0.176244 
114.055199 0.132207 
114.091637 0.085266 
114.127953 0.335082 
115.054329 6.626087 
115.086647 1.163059 
116.049438 0.118524 
116.057938 0.077714 
116.062134 0.168041 
116.070496 0.067721 
116.090019 0.104362 
116.966866 0.061892 
116.984505 0.097728 
117.057411 0.659329 
117.069939 7.568274 
117.575134 0.239829 
118.065109 1.056685 
118.073242 0.277351 
118.94313 0.090802 
119.00161 0.395479 
119.049286 1.241217 
119.060524 0.179397 
119.085625 11.883286 
119.943504 0.065308 
119.951103 0.333947 
120.044647 0.184686 
120.080864 3.828826 
120.088943 0.380552 
120.940674 0.213758 
121.028534 0.425226 
121.039627 0.161625 
121.064835 4.786502 
121.076096 0.148449 
121.088814 0.073467 
121.101257 4.866776 
122.060013 0.347655 
122.068047 0.060937 
122.096519 0.365448 
123.04409 0.544439 
123.055389 0.077739 
123.067123 0.070987 
123.080505 3.668574 
123.116898 1.982727 
123.791328 0.059901 
124.039513 0.180734 
124.075829 0.275701 
124.112076 0.079965 
125.022964 0.065197 
125.059784 0.784749 
125.071014 0.445089 
125.079094 0.064794 
125.096275 0.560056 
125.454163 0.306713 
125.645538 0.061946 
126.055061 0.174698 
126.091354 0.088511 
127.015678 0.058639 
127.039124 0.073538 
127.123955 0.197283 
128.062134 2.959777 
128.070618 0.069734 
128.963745 0.338991 
128.985703 0.066999 
129.069992 6.061392 
129.074646 0.166894 
130.065201 7.632372 
130.073318 0.07419 
130.07782 0.315516 
130.135696 0.073839 
131.000061 0.061859 
131.049149 0.683363 
131.073151 0.08891 
131.085648 7.909335 
132.044449 1.451402 
132.08078 0.642103 
132.088974 0.183814 
132.958221 0.377837 
133.06488 1.20078 
133.087357 0.081488 
133.101273 5.612906 
133.959381 0.864042 
133.977234 0.092076 
134.060226 0.486883 
134.096497 0.990567 
134.104523 0.162155 
134.956345 0.86383 
134.973709 0.100949 
134.978729 5.734819 
134.995285 0.218156 
135.044128 0.220604 
135.067123 0.497587 
135.080475 3.047379 
135.116943 0.808854 
136.072937 2.561007 
136.112244 1.424305 
137.059906 0.27004 
137.096024 0.448037 
138.055893 0.306977 
138.067719 0.359214 
138.091522 0.218574 
138.127914 0.082706 
138.951416 0.166544 
138.984055 0.070102 
139.038849 0.429104 
139.050262 0.119059 
139.075409 0.104399 
139.086777 0.061072 
140.071304 0.069866 
140.17659 0.308808 
140.984604 0.164496 
141.054352 0.061388 
141.069885 2.491249 
141.127441 0.100227 
142.065247 4.336994 
142.077942 1.937935 
142.979523 0.066147 
143.060516 0.169348 
143.073349 0.235761 
143.085693 4.680498 
144.044678 0.419031 
144.05751 0.066967 
144.081009 0.712299 
144.088242 0.104842 
144.093704 0.339293 
145.047852 0.074907 
145.064957 1.562738 
145.076141 0.101776 
145.088364 0.102291 
145.101273 5.414195 
145.976624 0.072712 
146.060242 1.813239 
146.073242 0.064618 
146.096832 0.26833 
146.104721 0.088885 
146.974396 5.617576 
146.996307 0.220727 
147.043991 0.068605 
147.068344 0.061793 
147.080444 1.073618 
147.103424 0.072454 
147.116974 1.706121 
147.97551 0.072062 
148.075836 0.603303 
148.112381 0.067701 
148.97226 0.07768 
149.059845 0.421464 
149.096085 0.838518 
149.954346 0.202767 
149.972122 0.073417 
150.054779 0.089815 
150.077728 0.09654 
150.091339 0.164463 
150.951187 0.836073 
150.969009 0.583937 
151.039078 0.177864 
151.062958 0.076127 
151.075485 1.407617 
151.31102 0.064192 
151.659744 0.320591 
152.056763 0.547861 
152.107208 0.076138 
152.951401 0.068823 
152.96701 0.564693 
152.989304 5.968508 
153.054504 0.221707 
153.07019 1.334757 
153.091003 0.069993 
153.098831 0.326012 
154.065247 1.447533 
154.07814 0.233954 
154.123032 0.39925 
154.947464 0.067097 
155.060318 1.214547 
155.085632 2.743726 
155.95491 0.067195 
156.06842 0.175501 
156.081009 1.079799 
156.093506 0.694193 
157.064972 0.212229 
157.076218 1.024955 
157.088898 0.836079 
157.101318 2.9922 
158.060196 0.902927 
158.072388 0.075186 
158.084106 0.125882 
158.09639 0.565128 
159.068008 0.646275 
159.080307 0.760892 
159.092209 0.073165 
159.104202 0.070898 
159.116928 2.160505 
160.075775 1.183961 
160.112152 0.096013 
160.714615 0.248839 
160.865906 0.298136 
160.961777 0.264615 
161.096237 0.948183 
161.132736 0.228815 
162.054626 0.176439 
162.091187 0.102494 
162.127243 0.188561 
162.958801 0.183047 
162.968781 0.056315 
163.062775 0.062911 
163.075729 0.404619 
163.112015 0.093668 
163.987473 0.379476 
164.107269 1.005459 
164.984573 0.731487 
165.007233 0.262002 
165.054794 0.061922 
165.069824 1.3389 
165.110672 0.073392 
165.317322 0.360269 
166.078018 0.078828 
166.08638 0.056893 
166.122757 0.09445 
166.56572 0.059649 
167.060699 0.416662 
167.073029 0.244395 
167.085449 1.164636 
167.964691 0.063632 
168.05777 0.244823 
168.080872 0.784076 
168.093842 0.200113 
168.101761 0.066906 
168.961472 0.066701 
169.064651 0.420727 
169.076218 2.645486 
169.101273 2.507344 
170.060043 10.103161 
170.067322 0.113692 
170.072128 0.092383 
170.084091 0.077209 
170.096771 0.415039 
170.109207 0.190983 
170.999863 0.179438 
171.05545 0.39033 
171.063217 0.388244 
171.080566 0.52118 
171.09166 0.203063 
171.104248 0.179564 
171.116974 2.302201 
172.075836 0.692784 
172.11174 0.596032 
172.174408 0.356739 
173.071136 0.411736 
173.08374 1.338551 
173.09639 0.531695 
173.118637 0.183262 
173.132843 0.138657 
174.055161 0.189987 
174.078766 0.776284 
174.091614 0.191169 
174.128067 0.070197 
175.063019 0.404263 
175.07576 0.157444 
175.11203 0.078898 
176.070786 1.011968 
176.107452 0.070752 
176.984985 0.083606 
177.078629 0.834584 
177.088058 0.37659 
178.078018 0.081378 
178.086441 0.070745 
178.122833 0.065951 
178.89328 0.122394 
179.085587 0.461044 
180.08136 0.143093 
180.888306 0.635309 
181.06543 0.114498 
181.075943 1.557052 
181.088547 0.074816 
181.101181 0.789564 
182.083054 0.065479 
182.096481 0.99687 
182.109299 0.211413 
183.055832 0.075634 
183.081039 0.182128 
183.091827 0.728686 
183.104324 0.142059 
183.117249 1.062486 
184.075928 1.202419 
184.112244 1.089497 
184.989532 0.161251 
185.071091 3.958229 
185.096405 0.210248 
185.11911 0.171173 
186.074493 0.086734 
186.091324 0.666677 
186.128342 0.186488 
187.075928 0.218261 
187.086014 0.300452 
187.11142 0.338699 
187.148605 0.074972 
188.070969 1.090962 
188.10701 0.073166 
189.078705 0.225472 
190.086517 0.150229 
191.082047 0.085227 
191.144547 0.085821 
191.880554 0.066594 
191.953903 0.094225 
192.065247 0.343602 
193.101532 0.441232 
194.096954 0.098748 
195.08078 0.314891 
195.091431 0.526054 
195.102798 0.058844 
195.116959 0.213551 
196.075836 0.421115 
196.112076 0.782027 
197.06044 0.196816 
197.071075 0.081308 
197.083221 0.233951 
197.096115 0.194616 
197.106903 0.180828 
197.132187 0.197351 
198.078873 1.132125 
198.091232 0.904729 
198.127792 0.577945 
198.898834 0.066116 
199.062775 1.220445 
199.074982 0.191128 
199.085892 0.488461 
199.098999 0.209226 
199.111908 0.072318 
199.136673 0.057401 
199.148468 0.111403 
200.070526 1.087878 
200.107086 0.909117 
201.054443 0.073732 
201.078751 0.074312 
201.112991 1.215318 
202.086487 0.325172 
202.12233 0.086779 
204.138397 0.08945 
207.091568 0.22398 
208.112152 0.170925 
208.883438 0.241792 
209.011337 0.194753 
209.09642 0.075488 
209.117706 0.316715 
209.132675 0.10861 
209.618301 0.154715 
209.89151 0.839901 
209.964447 0.122172 
210.091431 1.091413 
210.127991 0.222527 
211.008713 0.07989 
211.076218 0.108334 
211.086807 2.683718 
211.098663 0.226952 
211.111359 0.09102 
212.070663 1.784788 
212.093964 2.917606 
212.106873 0.729694 
212.118195 0.092634 
212.143341 0.081137 
213.066162 0.213883 
213.078812 1.478968 
213.090454 0.144723 
213.102341 1.458582 
213.886398 0.10397 
213.906265 0.079158 
214.086334 5.131751 
214.108368 0.064631 
214.122528 0.207223 
214.134796 0.065177 
214.985596 0.458466 
215.093658 0.357507 
216.102158 0.412247 
217.111206 0.306564 
218.117783 1.21236 
219.123337 4.261872 
219.386017 1.292054 
220.112625 0.068675 
220.125366 0.079393 
222.127777 1.200952 
223.027054 3.05807 
223.086212 0.637744 
223.12326 0.231163 
223.146179 0.083907 
224.028244 0.330729 
224.107071 1.694704 
225.024048 7.728592 
225.043213 4.136104 
225.054153 0.102035 
225.077805 0.12464 
225.10231 1.843176 
225.113556 0.164869 
225.12648 0.057272 
226.043121 1.132699 
226.086426 2.216966 
226.108521 0.420262 
226.122314 0.37899 
226.158386 0.078638 
227.0224 2.246994 
227.03952 9.382628 
227.070831 0.071204 
227.093597 0.674238 
227.117905 0.17034 
228.022354 0.199499 
228.040161 0.360922 
228.06456 0.078456 
228.101974 2.66632 
228.138962 0.073325 
229.001617 10.590489 
229.01918 4.774313 
229.108765 0.068196 
230.001495 0.983011 
230.01976 0.080364 
230.998489 3.236145 
232.996613 0.226612 
233.892349 0.070463 
236.10701 0.079909 
237.50647 0.300483 
238.086533 0.088142 
238.122833 1.247694 
239.118179 3.107928 
240.101959 4.041332 
240.123352 0.575505 
240.140182 1.601049 
240.232361 0.102529 
240.910095 0.128647 
240.947479 7.303685 
240.962128 0.34753 
241.106583 0.203819 
241.946793 0.071386 
242.057617 0.848341 
242.08194 0.066203 
242.117661 7.475511 
242.92572 0.513676 
243.017273 3.092674 
243.0336 0.075034 
243.540344 0.062674 
247.012283 1.953662 
248.01178 0.168843 
248.991806 0.176482 
249.008392 0.302511 
250.894287 0.139652 
250.970917 0.099969 
250.986511 0.089465 
252.983749 0.576524 
253.133591 0.255878 
253.955338 0.230653 
254.117599 1.075755 
254.153809 0.838507 
254.962936 34.17997 
255.065277 0.074612 
255.962662 6.073612 
256.133209 4.029725 
256.942291 2.55711 
256.959778 4.110009 
257.140045 0.159272 
257.959564 0.059949 
258.957825 3.999049 
259.957886 0.428289 
260.937225 2.788706 
261.028168 0.381158 
265.128784 0.37651 
266.447998 0.066666 
266.999329 7.957845 
267.015503 0.260258 
267.99942 3.381514 
268.097046 0.077376 
268.978607 100.0 
268.996429 55.834682 
269.97876 17.497456 
269.99649 8.690656 
270.052216 0.585953 
270.958313 16.568981 
270.976013 5.72053 
270.993713 19.080532 
271.958038 2.024707 
271.976288 0.231272 
271.993927 3.329677 
272.973785 0.896572 
272.991089 0.905065 
273.973724 0.146997 
274.95285 1.807568 
275.952698 0.150535 
276.93219 0.341333 
276.969391 0.191942 
279.826874 0.086295 
282.994476 0.065966 
283.030853 0.090022 
284.20047 0.085481 
284.238037 0.2124 
284.33136 0.838331 
284.972992 0.109627 
285.009796 5.466059 
285.028076 7.251586 
285.33551 0.083481 
286.009888 0.694202 
286.027802 0.457416 
286.180145 0.445239 
286.216522 0.348382 
286.252899 0.085787 
286.989105 0.767002 
287.007202 2.871528 
287.830627 0.072482 
288.007233 0.07538 
288.96817 3.909432 
289.004486 4.081408 
289.969086 0.202939 
290.004425 0.223616 
290.947174 0.228593 
291.002136 0.215855 
302.819397 0.073774 
303.02124 0.213727 
305.017212 0.066036 
END IONS

