BEGIN IONS
PEPMASS=313.105
CHARGE=1+
COMPOUNDNAME=dehydrocurvularin
LIBRARYQUALITY=3
SMILES=N/A
INCHIKEY=AVIRMQMUBGNCKS-GQCTYLIASA-N
INCHI=InChI=1S/C16H18O5/c1-10-5-3-2-4-6-13(18)16-11(8-15(20)21-10)7-12(17)9-14(16)19/h4,6-7,9-10,17,19H,2-3,5,8H2,1H3/b6-4+
MSLEVEL=2
SOURCE_INSTRUMENT=N/A-ESI-QFT
FILENAME=library_mgf.mgf
SEQ=*..*
IONMODE=positive
ORGANISM=MONA
NAME=dehydrocurvularin [M+Na]+
PI=MoNA
DATACOLLECTOR=MoNA:VF-NPL-QEHF016195
PUBMED=N/A
SUBMITUSER=mwang87
TAGS=
SPECTRUMID=CCMSLIB00004707258
SCANS=16195
50.129082 0.005257 
50.155811 0.006735 
50.189259 0.006429 
50.393902 0.002672 
50.48349 0.005779 
50.812313 0.002733 
51.188133 0.003253 
51.276634 0.003953 
51.4016 0.0031 
51.45134 0.003425 
51.558434 0.00322 
51.561462 0.007706 
51.613312 0.00864 
51.927559 0.003547 
51.940422 0.014823 
52.420837 0.00729 
52.473278 0.00752 
52.582584 0.007649 
52.955013 0.003722 
53.002586 0.037016 
53.039028 0.043813 
53.064129 0.003192 
53.413681 0.009687 
53.42123 0.003054 
53.449097 0.003352 
53.525787 0.005184 
53.68726 0.006347 
53.693146 0.007675 
53.734081 0.003523 
53.859333 0.003294 
53.860779 0.003193 
53.886436 0.005648 
53.90733 0.003375 
54.006165 0.003516 
54.699928 0.006257 
54.830048 0.003899 
54.862984 0.003098 
54.866505 0.003682 
55.018204 0.105258 
55.054577 2.608109 
55.067337 0.003337 
55.262642 0.007088 
55.298622 0.004499 
55.432674 0.00648 
55.672523 0.003279 
55.731487 0.003394 
55.8335 0.002991 
55.934765 0.030045 
55.943165 0.003313 
56.049896 0.051553 
56.057922 0.078319 
56.062397 0.153469 
56.096725 0.003736 
56.275562 0.002896 
56.768673 0.003364 
56.781277 0.00277 
57.033821 0.776869 
57.070206 4.780542 
57.071774 0.067998 
57.089542 0.004758 
57.110714 0.007736 
57.117992 0.003477 
57.411972 0.003211 
57.422104 0.003514 
58.061821 0.003736 
58.065453 0.1912 
58.073566 0.05091 
58.765602 0.005621 
58.962818 0.003133 
58.995323 0.11238 
59.049446 1.74503 
59.257442 0.003135 
59.382843 0.008541 
59.728607 0.003983 
59.745441 0.002905 
59.83604 0.008962 
59.990757 0.008227 
60.044647 0.019386 
60.052841 0.00544 
60.08107 0.083307 
60.178162 0.009919 
60.315048 0.002879 
60.344215 0.007536 
60.396912 0.003058 
60.410557 0.008151 
60.556366 0.004161 
61.008446 0.023634 
61.010921 23.968321 
61.133862 0.009627 
61.462879 0.003146 
61.527443 0.003016 
61.717014 0.004619 
61.756199 0.011052 
62.010307 0.626644 
62.014229 1.690412 
62.01873 0.438313 
62.060284 0.463839 
62.113827 0.008195 
62.455891 0.00307 
62.599129 0.003075 
62.854565 0.003775 
62.951229 0.003742 
62.990166 0.823874 
63.006657 4.27426 
63.026585 0.007822 
63.154106 0.0062 
63.383675 0.00749 
63.529945 0.00915 
63.600826 0.005596 
63.859604 0.003027 
63.99799 0.078321 
64.010017 0.186115 
64.339897 0.010741 
64.421112 0.00358 
64.504372 0.003476 
64.65123 0.002931 
64.801758 0.00319 
65.005814 0.251889 
65.038895 0.009994 
65.548363 0.003307 
66.179375 0.007349 
66.246017 0.003165 
66.907379 0.008412 
67.054413 2.323112 
67.182465 0.003114 
67.255745 0.005002 
67.942329 0.003459 
68.057785 0.018772 
68.194824 0.002814 
68.20504 0.005955 
68.730537 0.006597 
68.96199 0.003716 
69.033661 0.299877 
69.070007 4.823276 
69.313446 0.009279 
69.385475 0.002972 
69.391693 0.007614 
69.774422 0.003176 
69.878159 0.008153 
69.921341 0.003034 
69.951736 0.010714 
70.065277 0.043461 
70.073364 0.151079 
70.077881 0.17296 
70.323029 0.006288 
70.397507 0.00724 
71.049248 1.002003 
71.085632 2.795005 
71.12545 0.003404 
71.227264 0.007172 
71.747826 0.003999 
72.044563 0.006263 
72.052658 0.008703 
72.080879 0.887385 
72.089058 0.027857 
72.499069 0.009728 
72.507462 0.003592 
72.937317 0.234363 
72.988068 0.00328 
73.01078 0.08798 
73.028488 0.009072 
73.046898 0.187433 
73.064919 0.137673 
73.300827 0.003294 
73.607018 0.0029 
74.005753 0.004097 
74.028252 0.002973 
74.068169 0.018425 
74.096657 0.017219 
74.584267 0.005634 
74.937988 0.045308 
75.026421 0.105713 
75.044167 0.14614 
75.695847 0.008728 
75.800835 0.003305 
75.809387 0.004287 
75.88623 0.009078 
76.034821 0.003697 
76.039391 0.014676 
76.259613 0.004018 
76.616669 0.010808 
76.835968 0.00381 
76.933472 0.183026 
77.005646 0.171604 
77.514526 0.003907 
77.739334 0.003183 
77.784203 0.003767 
77.82811 0.003163 
77.959381 0.053213 
78.013412 0.044572 
78.055382 0.003595 
78.620049 0.003394 
78.900963 0.007154 
78.95858 0.007173 
78.96714 1.297664 
78.984924 0.011807 
79.021301 6.31309 
79.054314 0.710655 
79.431076 0.003352 
79.51046 0.00323 
79.808083 0.003372 
80.024651 0.086444 
80.045723 0.010526 
80.057915 0.006605 
80.186523 0.007037 
80.438972 0.011842 
80.594589 0.003416 
80.600739 0.003729 
80.602615 0.003198 
80.982811 0.191321 
81.000595 0.704872 
81.017067 0.229416 
81.033615 0.137651 
81.069962 5.392832 
81.56189 0.003123 
81.913933 0.009471 
82.073334 0.814984 
82.550079 0.003589 
83.012627 0.005717 
83.049255 0.407033 
83.07679 0.006605 
83.085587 3.528343 
84.080856 0.066812 
84.089027 0.105429 
84.146797 0.003293 
85.028519 0.14102 
85.039803 0.017998 
85.064903 0.751309 
85.101273 1.293261 
85.670387 0.007329 
85.682602 0.004142 
85.744759 0.002882 
85.808365 0.006403 
86.011276 0.009707 
86.060188 0.034907 
86.096481 1.128017 
86.104874 0.003355 
87.044182 2.36232 
87.100136 0.011337 
87.99028 0.005115 
88.047508 0.008273 
88.075806 0.083788 
88.345665 0.00696 
89.056915 0.023542 
89.059814 3.002621 
89.143486 0.003655 
89.144356 0.003721 
89.145233 0.003413 
89.963821 0.225244 
90.055077 7.205921 
90.063286 0.006997 
90.947792 0.448372 
90.967201 0.234679 
91.054329 1.338685 
91.057472 1.238138 
91.120171 0.007026 
91.68364 0.003445 
92.057159 0.113851 
92.060699 0.028699 
92.982826 3.173396 
93.036606 0.010669 
93.054298 0.03515 
93.069992 1.253031 
93.986046 0.018771 
94.073357 0.016865 
94.937729 0.003639 
94.943909 0.019458 
94.962151 0.035049 
94.978638 0.103605 
95.049225 2.612178 
95.085602 4.796414 
95.249405 0.007913 
95.785789 0.003267 
95.95137 0.005293 
96.04451 0.209633 
96.052513 0.063938 
96.088959 0.306973 
96.994659 0.004929 
97.028587 0.149073 
97.064911 0.754162 
97.101303 2.322918 
97.25042 0.00858 
97.363876 0.003991 
97.374611 0.010039 
98.043655 0.003259 
98.060226 0.011195 
98.096581 0.496872 
98.104668 0.056485 
98.313637 0.003065 
98.975456 0.051294 
99.044189 0.514549 
99.080544 2.198265 
99.099915 0.296504 
99.541771 0.007928 
100.075867 0.028399 
100.083878 0.660808 
100.112175 0.039153 
101.003304 4.653563 
101.059822 0.523459 
101.08429 0.004981 
101.08744 0.0095 
101.095909 0.006804 
102.006622 0.098053 
102.492302 0.003564 
102.819321 0.003423 
102.948204 0.056584 
102.967369 0.006059 
102.999039 0.270881 
103.03907 0.653016 
103.075455 0.718254 
103.441917 0.003338 
103.859787 0.003245 
103.979675 0.009777 
104.434731 0.002965 
104.759872 0.003348 
104.98291 0.141009 
105.033562 0.034552 
105.037041 0.008462 
105.07 0.587176 
105.126564 0.009762 
105.351379 0.00336 
105.981133 0.060312 
106.763481 0.00292 
106.926186 0.009656 
106.962318 0.022673 
106.978729 0.007969 
106.998482 0.499069 
107.049194 0.129257 
107.052475 0.541961 
107.070389 0.039393 
107.08564 1.192159 
107.279343 0.003772 
107.498863 0.003869 
107.685356 0.012622 
107.94545 0.004187 
107.950905 0.010475 
107.969925 1.81519 
108.002022 0.015268 
108.051949 0.015176 
108.05584 0.007467 
108.088783 0.007631 
108.118713 0.003263 
108.347374 0.005922 
108.598618 0.002775 
108.923485 0.011091 
108.958366 0.199852 
108.97776 0.398039 
108.994331 0.225327 
109.028473 0.03847 
109.064934 0.532422 
109.101288 2.46386 
109.307739 0.003902 
109.482796 0.006215 
109.9114 0.003701 
109.965843 0.028085 
109.99556 0.003083 
110.104675 0.05604 
110.350197 0.003385 
110.93924 3.28603 
110.993401 0.07678 
111.044212 0.336801 
111.080551 0.515826 
111.116936 0.684295 
111.444786 0.003092 
111.660446 0.003702 
111.947067 0.044867 
112.047813 0.009978 
112.076027 0.018748 
112.935013 0.193763 
112.972687 0.137514 
113.059799 0.119527 
113.096161 0.339336 
113.702972 0.003519 
113.7705 0.003196 
114.091248 0.011742 
114.286995 0.003243 
114.487885 0.020254 
114.986267 0.683118 
115.039185 0.088821 
115.075523 0.146622 
115.711945 0.003732 
115.853539 0.002761 
115.951393 0.005928 
115.98381 0.010098 
116.052979 0.141738 
116.094223 0.003368 
116.65255 0.003628 
116.776398 0.002907 
116.963715 0.022867 
116.985909 0.10831 
117.054794 0.29303 
117.069939 0.058565 
117.090958 0.004189 
117.745232 0.004097 
118.824028 0.003103 
118.942795 0.017499 
119.049507 0.010798 
119.08564 0.740635 
119.117973 0.010393 
119.95639 0.053611 
120.080894 0.104724 
120.430061 0.0032 
120.534775 0.003972 
120.549332 0.00659 
121.028404 0.011121 
121.064934 1.033425 
121.101303 1.460304 
121.91288 0.018463 
122.096909 0.008289 
122.104721 0.02298 
122.603256 0.003279 
122.934242 0.00331 
122.939278 0.895385 
122.9935 0.272446 
123.044136 0.781663 
123.080475 0.738596 
123.116898 1.183536 
123.493118 0.303061 
123.542603 0.01 
123.938911 0.089568 
123.947098 0.925259 
123.965858 0.004834 
123.991501 1.058661 
123.996368 0.015709 
124.03981 0.009977 
124.047539 0.2603 
124.084015 0.008941 
124.119965 0.005923 
124.179886 0.003758 
124.490936 0.022564 
124.703026 0.003065 
124.936455 1.233162 
124.95488 0.45741 
124.972649 0.461181 
124.989433 0.046201 
125.048492 0.023876 
125.05983 0.336449 
125.096252 0.482755 
125.132637 0.014307 
125.822578 0.010631 
125.93615 0.099327 
125.943054 0.023115 
125.961189 0.024791 
126.013222 0.0037 
126.933838 0.263991 
126.988922 0.005839 
127.039185 0.056839 
127.075447 0.091703 
127.111786 0.211115 
127.466408 0.00327 
128.062836 0.006543 
128.491013 0.007935 
128.573914 0.003073 
128.963654 0.280178 
129.054611 0.092288 
129.069839 0.011146 
129.17421 0.007133 
129.715668 0.003361 
131.070419 0.83274 
131.085617 0.352855 
131.381531 0.004587 
132.16864 0.006021 
132.958588 0.008243 
133.065048 0.101278 
133.085953 0.891012 
133.101257 0.896313 
133.959335 0.217515 
134.104462 0.00765 
134.75029 0.003112 
134.956161 0.573537 
134.974075 0.019281 
134.978867 0.01996 
134.996475 0.211503 
135.044189 0.038366 
135.063507 0.007569 
135.080521 0.213997 
135.116821 0.828769 
135.560989 0.011595 
135.658295 0.003822 
135.948929 0.007349 
136.120331 0.0159 
136.936371 0.032844 
136.947052 0.009317 
136.954147 0.069333 
136.966736 0.005989 
137.02359 0.020579 
137.059845 0.46515 
137.090881 0.009814 
137.096252 0.337338 
137.132645 0.391867 
137.476074 0.775964 
137.686661 0.003267 
137.928329 0.036637 
137.939224 0.00863 
137.944504 0.337117 
137.967087 0.032244 
138.258072 0.003174 
138.473816 0.033925 
138.636719 0.003752 
138.951355 0.016878 
138.97049 0.641188 
138.988312 0.267848 
139.039169 0.050498 
139.075424 0.214496 
139.111801 0.165144 
139.650192 0.003587 
139.923599 0.116379 
139.94223 0.01793 
140.070526 0.005993 
140.115891 0.009717 
140.635437 0.00563 
140.847153 0.005565 
140.895889 0.009615 
140.94989 0.901039 
140.959213 0.468623 
140.967377 0.372361 
141.054596 0.025164 
141.091125 0.030514 
141.127396 0.208184 
141.903534 0.348122 
141.911301 0.005603 
141.949371 0.019568 
142.095367 0.008674 
142.123154 0.01058 
142.159164 0.157976 
142.946655 0.243853 
143.0858 0.061954 
143.990158 0.215887 
144.445969 0.003326 
144.489624 0.115334 
144.958725 0.009907 
144.987885 3.896006 
145.064529 0.034941 
145.101318 0.356642 
145.488922 0.262979 
145.966995 0.010947 
145.985672 0.209854 
146.481384 0.411124 
146.958084 0.003075 
146.974411 1.202705 
147.043945 0.017318 
147.065247 0.010536 
147.080551 0.230329 
147.101715 0.012464 
147.116867 0.943458 
147.974579 0.006627 
148.08165 0.010355 
148.120132 0.010219 
148.217117 0.008134 
148.50116 0.003479 
148.77005 0.003466 
148.956146 0.072297 
148.972122 0.088232 
149.023499 0.225636 
149.059814 0.45611 
149.096298 0.230105 
149.132645 0.41928 
149.855499 0.006127 
149.954254 0.479182 
150.428146 0.003199 
150.539246 0.010103 
150.587128 0.004478 
150.816238 0.003096 
150.951172 8.170655 
151.0392 0.106151 
151.068436 0.003498 
151.075607 0.169072 
151.096588 0.260338 
151.111923 0.172056 
151.148071 0.062419 
151.547424 0.10246 
151.951477 2.204174 
151.970016 0.031177 
152.276871 0.003483 
152.326157 0.002834 
152.537109 0.011378 
152.686188 0.004955 
152.951889 27.706644 
152.96637 0.28352 
152.98941 0.051723 
153.006409 0.00385 
153.054749 0.296363 
153.090424 0.057781 
153.127563 0.037589 
153.494675 0.236743 
153.644913 0.005926 
153.845856 0.003593 
153.949493 9.537198 
153.955078 2.993457 
153.965149 0.012859 
153.993134 0.318241 
154.337173 0.004422 
154.911209 0.083595 
154.935043 0.025897 
154.946976 100.0 
154.993057 0.03955 
155.015778 0.011497 
155.033661 0.030602 
155.048004 0.003572 
155.070297 0.019261 
155.107071 0.010982 
155.143097 0.145156 
155.919159 0.072437 
155.946396 3.63206 
156.138153 0.020549 
156.176636 0.008456 
156.927307 0.01373 
156.936646 0.068799 
156.944321 10.87225 
156.966263 0.007311 
157.049545 0.008883 
157.101456 0.070995 
157.952042 0.004762 
157.989456 0.020479 
158.278275 0.004558 
158.334686 0.008219 
158.555115 0.305981 
158.684296 0.003323 
158.905807 0.255707 
158.953583 0.563712 
158.960068 0.004965 
158.978241 0.124469 
159.047348 0.193736 
159.080627 0.117471 
159.116974 0.134 
159.968979 0.010877 
159.982513 0.014775 
160.254547 0.00375 
160.664032 0.008331 
160.951828 0.060891 
161.059753 0.098252 
161.096207 0.19546 
161.132614 0.464921 
162.969971 0.010863 
163.039459 0.012132 
163.075302 0.128441 
163.096024 0.010544 
163.111832 0.119996 
163.148163 0.218358 
163.977203 0.161056 
164.070984 0.018664 
164.296021 0.0035 
164.554871 0.012651 
164.966736 0.381113 
165.05481 0.167763 
165.091293 0.368898 
165.127701 0.064581 
165.163925 0.024084 
165.56282 0.44188 
166.063965 0.019592 
166.967041 0.403262 
166.975342 0.005162 
166.997421 0.010194 
167.034012 0.187232 
167.07019 0.061232 
167.106232 0.011307 
167.142929 0.010891 
167.964645 0.154826 
168.037659 0.022305 
168.102631 0.011281 
168.139542 0.003591 
168.259842 0.003561 
168.649094 0.004752 
168.926804 0.025128 
168.944702 0.263148 
168.961868 5.654182 
168.982925 0.018481 
169.038879 0.045801 
169.049667 0.086577 
169.123154 0.011565 
169.203995 0.003409 
169.962067 1.481728 
169.983017 0.003864 
170.052795 0.00987 
170.117981 0.035112 
170.962112 9.752348 
170.978363 0.257025 
171.054214 0.010493 
171.080841 0.009057 
171.116882 0.024835 
171.959702 13.820558 
172.005768 0.022371 
172.11528 0.138935 
172.570694 0.388389 
172.922012 0.83502 
172.957642 34.15625 
172.975464 0.15187 
173.059753 0.032644 
173.071609 0.019515 
173.09613 0.112774 
173.118195 0.007825 
173.13269 0.067175 
173.957047 1.45308 
173.985153 0.047191 
174.005997 0.009675 
174.218262 0.008723 
174.682281 0.003631 
174.91861 0.127588 
174.954819 3.747471 
174.974182 0.009437 
175.07547 0.290726 
175.096588 0.555837 
175.111923 0.078286 
175.14827 0.149855 
175.998596 0.010396 
176.91423 0.473959 
177.054688 0.094734 
177.091202 0.151505 
177.112152 0.00536 
177.127853 0.011052 
177.163956 0.116691 
177.202026 0.004065 
177.992798 0.018705 
178.12291 0.01352 
178.94725 0.011511 
178.963593 0.017146 
179.022079 0.004404 
179.070526 0.081852 
179.080582 0.009141 
179.106705 0.010299 
179.143143 0.02659 
179.578598 0.215895 
180.174149 0.004582 
180.808609 0.004586 
180.944077 0.031514 
180.96907 0.00492 
181.049622 0.063889 
181.071259 0.003691 
181.085907 0.023217 
181.933929 0.00524 
182.944626 0.202296 
182.977493 0.539201 
183.06546 0.00809 
183.081406 0.013927 
183.101852 0.030064 
183.1884 0.008494 
183.942108 1.814789 
184.006546 0.003088 
184.096237 0.012048 
184.133286 0.084253 
184.939941 2.626444 
185.09642 0.056653 
185.830719 0.003307 
185.938812 0.061966 
185.95163 0.162319 
185.96373 0.018864 
185.976135 0.025636 
186.021805 0.016187 
186.586517 0.115012 
186.936859 0.410726 
186.973007 0.051223 
187.075623 0.103723 
187.111771 0.039799 
187.148361 0.330719 
187.499664 0.003338 
187.937561 0.009608 
187.944565 0.0043 
187.952332 0.012272 
187.97702 0.011732 
188.000366 0.056792 
188.069839 0.009828 
188.152054 0.013003 
188.916779 0.504623 
188.93808 0.021439 
188.96759 0.096994 
189.054688 0.08048 
189.091187 0.295213 
189.128036 0.010202 
189.16394 0.331548 
189.970535 0.657881 
190.910583 0.008236 
190.967789 0.023752 
191.021103 0.004014 
191.036407 0.079532 
191.059723 0.00388 
191.070618 0.07976 
191.106949 0.194227 
191.972122 0.02552 
192.929367 0.009549 
192.9617 0.336669 
193.049896 0.1032 
193.086136 0.176381 
193.59494 0.023715 
194.053406 0.006562 
194.924774 2.623182 
194.975296 0.011799 
195.028671 0.018836 
195.055374 0.009827 
195.065948 0.011353 
195.10257 0.010708 
195.122955 0.055884 
195.973679 0.029119 
197.032394 0.0064 
197.095978 0.008997 
197.788925 0.003259 
198.185638 0.022557 
198.954239 0.012686 
198.989883 0.010944 
199.075317 0.064007 
199.112213 0.03044 
199.148727 0.011173 
199.762711 0.003267 
199.955353 0.00701 
199.977356 0.004677 
200.950912 0.078215 
201.055313 0.02218 
201.091278 0.127572 
201.952942 1.38726 
202.016647 0.009277 
202.086304 0.043858 
202.180252 0.010445 
202.914795 0.015067 
202.921875 0.019106 
202.93248 3.477432 
202.950043 0.330262 
203.046906 5.828597 
203.070114 0.109597 
203.095322 0.005011 
203.106888 0.118439 
203.143051 0.007179 
203.933868 0.009282 
203.949097 0.012217 
204.911591 0.032427 
204.92836 0.448824 
204.962296 0.299166 
205.050003 0.047534 
205.086105 0.118341 
205.122253 0.007564 
205.141357 0.216833 
205.158661 0.09113 
205.640015 0.054485 
205.987915 0.40719 
206.977905 2.610974 
206.988022 0.041423 
207.014267 0.003919 
207.065613 0.054803 
207.101624 0.019799 
207.174225 0.025228 
207.986176 1.961455 
208.883652 0.017945 
208.94046 0.003903 
208.974899 0.034865 
208.986359 0.144623 
209.081512 0.01225 
209.118896 0.003779 
209.89119 0.032617 
209.981827 0.012492 
210.899109 0.004858 
210.954651 0.182222 
210.971848 0.148943 
211.028229 0.003443 
211.07489 0.018245 
211.111984 0.010108 
211.956436 0.424222 
212.201309 0.191713 
212.935425 1.463583 
212.949966 0.746967 
212.972595 0.006904 
212.984146 0.01134 
213.091354 0.045618 
213.21936 0.003875 
213.952713 4.578563 
214.146225 0.051792 
214.894119 0.006539 
214.936432 0.010807 
214.950439 2.141031 
214.964249 0.137501 
214.989288 0.067672 
215.04599 0.005854 
215.070175 0.062491 
215.10701 0.041064 
215.949036 0.274765 
216.948151 0.472001 
216.968521 0.133925 
216.986588 0.00565 
217.050919 0.076289 
217.086136 0.406072 
218.197037 0.00446 
218.868713 0.251482 
218.909225 0.027564 
218.927216 0.042403 
219.065582 0.032716 
219.101746 0.093079 
219.174469 0.949483 
219.898376 0.043942 
220.744781 0.009262 
220.884384 0.03017 
220.900513 0.013733 
220.924652 0.306349 
221.044983 0.014893 
221.080887 0.069783 
221.625656 0.075408 
221.895294 0.040835 
221.925293 0.131351 
222.883453 0.003509 
222.899048 0.017826 
222.921524 0.699031 
223.169479 0.132902 
223.799622 0.006935 
223.893188 0.015679 
224.878296 0.010151 
224.92157 0.010234 
224.985229 0.010597 
225.043167 0.907267 
225.079269 0.007646 
225.091171 0.154146 
226.042969 0.325872 
226.215927 0.014898 
226.894897 0.038978 
227.022339 0.210549 
227.045258 1.960917 
227.057312 0.022644 
227.070847 0.029025 
227.106689 0.107718 
228.022339 0.03953 
228.049377 0.194117 
228.889206 0.968942 
228.965469 0.045442 
229.019501 0.011408 
229.086029 0.054954 
229.121765 0.008891 
229.88942 0.037641 
229.966782 0.378639 
230.891037 0.005086 
230.905426 0.058882 
230.924805 0.021493 
230.96196 0.793104 
231.06517 0.011232 
231.102081 0.027111 
231.896698 1.357633 
231.926804 0.120574 
231.962982 2.271775 
232.118744 0.003371 
232.905258 0.086835 
232.924728 1.249507 
232.94751 0.037487 
232.961014 4.211317 
232.999802 0.016693 
233.117294 0.016756 
233.924606 1.240921 
233.962158 0.246431 
234.904144 0.028717 
234.921219 2.889561 
234.958038 0.505441 
234.979599 0.099745 
235.00827 0.022793 
235.062607 0.213734 
235.096603 0.098838 
235.143097 0.497364 
235.206589 0.01229 
235.24292 0.00336 
235.641327 1.582839 
235.911285 0.060937 
235.923843 0.144337 
236.131134 0.011632 
236.142456 0.396578 
236.201477 0.018708 
236.879639 0.022212 
236.921188 0.498594 
236.951126 0.009083 
237.079529 0.042169 
237.126053 0.009737 
237.908661 0.309219 
238.048523 0.003522 
238.860291 0.003093 
238.918411 0.010465 
238.967651 0.721057 
239.070648 0.016303 
239.107544 0.022606 
240.152161 0.013307 
240.909744 0.114157 
240.932022 0.1718 
241.038147 0.211047 
241.08609 0.062514 
241.122711 0.027886 
241.975174 0.009878 
242.038284 0.050674 
242.083206 0.049183 
242.117477 0.008916 
242.130264 0.008788 
242.890976 0.00438 
242.905365 0.209243 
243.035645 0.003671 
243.065231 0.012956 
244.147324 0.00861 
244.884232 0.418477 
244.90506 0.005176 
245.056122 0.187143 
245.081085 0.031508 
245.226562 0.063078 
245.777542 0.005375 
245.952942 0.034463 
246.078156 0.010345 
246.426697 0.01038 
246.883591 0.047374 
246.903885 0.008635 
248.899551 0.343726 
248.917435 0.1995 
248.938751 0.4182 
249.871475 0.00383 
249.907547 0.080845 
249.937393 1.986457 
250.919678 0.32517 
250.935104 11.448445 
251.106903 0.007335 
251.902267 0.005698 
251.917542 0.693048 
251.935501 12.263836 
251.975174 0.880841 
252.195602 0.033743 
252.915085 2.864714 
252.931717 28.651482 
253.018539 0.010828 
253.085861 0.231907 
253.195221 0.011809 
253.251923 0.008561 
253.902267 0.020799 
253.916794 0.068784 
253.933502 1.933692 
254.117477 0.010717 
254.910767 0.18942 
254.931885 5.231841 
254.948914 0.161494 
254.977051 0.108989 
255.065598 0.062116 
255.101425 0.233876 
255.299484 0.008984 
255.898926 0.00366 
255.919037 0.161579 
256.099152 0.111953 
257.080841 0.013633 
257.116821 0.008248 
257.895721 0.023195 
258.848938 0.011886 
258.865997 0.020716 
259.011261 0.004277 
259.048798 0.115529 
259.10965 1.949654 
260.048737 0.025339 
260.90036 0.060886 
261.045898 0.003784 
262.894806 1.206496 
263.237122 0.02851 
263.902863 0.051797 
264.050995 0.015374 
264.894989 0.036375 
264.90976 0.010062 
264.951416 0.019055 
266.927277 0.033071 
266.94812 0.254895 
267.101837 0.037414 
267.950836 0.098297 
268.263458 1.20252 
268.885315 0.006763 
268.930176 0.116535 
268.945557 2.438306 
269.081116 0.031722 
269.116943 0.193548 
269.266815 0.088499 
269.928925 0.119189 
269.946564 2.324623 
270.114563 0.244399 
270.900208 0.666299 
270.925079 1.251844 
270.9422 5.982791 
271.096832 0.076603 
271.13501 0.019235 
271.151917 0.275838 
271.753571 0.008924 
271.900116 0.0415 
271.925201 0.00443 
271.944763 0.190763 
272.128235 0.157453 
272.899475 0.213325 
272.922302 0.050032 
272.941833 1.112394 
272.989777 0.003557 
273.076324 0.023951 
273.907104 0.326057 
273.953247 0.007216 
274.0578 0.020959 
274.880737 0.012185 
276.81958 0.030137 
276.876282 0.276429 
278.05127 0.041 
278.818268 0.057663 
280.813293 0.425862 
281.051422 0.084511 
281.080688 0.123494 
281.195038 0.004285 
281.822021 0.004244 
281.896729 0.044348 
282.046814 0.007335 
282.113434 0.019829 
282.896545 0.006622 
282.994476 0.004715 
283.030579 0.540037 
283.059967 1.020649 
283.67746 0.005514 
283.892365 0.184944 
283.915222 0.005377 
284.031036 0.067103 
284.130951 0.26642 
284.915405 0.027079 
285.010162 0.0215 
285.0289 0.007367 
285.046448 0.092769 
285.075745 0.011598 
285.112427 0.032382 
285.815582 0.034101 
285.836914 0.004074 
286.824524 0.011916 
286.851105 0.003764 
286.894684 0.342549 
287.81189 0.01184 
287.83139 0.014461 
288.072357 0.010666 
288.917969 0.138723 
289.901367 0.01131 
289.917999 0.118542 
291.806061 0.152227 
292.065338 0.01474 
293.933502 0.010482 
294.315948 0.050361 
294.749878 0.005352 
294.812561 0.006536 
294.957245 0.175117 
295.108246 2.104573 
296.093506 0.007464 
296.111664 0.411325 
296.129944 0.025884 
296.331451 0.19057 
297.046082 0.232175 
297.073669 0.005282 
297.816376 0.066681 
298.046051 0.009996 
298.14679 0.243009 
298.330719 0.004704 
298.824799 0.004193 
298.971191 0.003367 
299.061859 2.411077 
299.908325 0.003802 
300.062134 0.538046 
301.059601 0.12475 
301.903381 0.016796 
302.087341 0.053014 
302.818604 0.049157 
302.926788 0.014256 
304.905426 0.072994 
306.082001 0.025123 
306.815063 0.004291 
307.822144 0.028129 
308.808838 0.180474 
308.848663 0.046172 
308.936554 0.346484 
309.816559 0.657648 
310.816284 0.015331 
311.098389 0.033626 
311.12793 0.012219 
311.178406 0.00958 
311.294617 1.129175 
311.313141 0.017868 
311.831482 0.015059 
312.087067 0.17581 
312.123749 0.143143 
312.16098 0.365586 
312.17926 0.01059 
312.196777 0.04075 
312.232849 0.012245 
312.253296 0.009879 
312.296539 0.255949 
312.326843 3.795224 
312.362488 6.516642 
312.916199 0.009022 
312.936432 0.003713 
312.969299 0.017829 
313.040924 0.100978 
313.070435 0.135264 
313.105988 0.758168 
313.142456 0.070673 
313.198364 3.338454 
313.234039 1.713367 
313.273651 0.190801 
313.330658 0.685971 
313.365753 1.521777 
314.104248 0.069226 
314.138916 0.407075 
314.175415 0.352153 
314.20224 0.397715 
314.238129 0.143143 
314.285614 0.059989 
314.307007 0.177573 
314.341827 5.046844 
314.365143 0.037127 
314.369781 0.025007 
314.879242 0.005454 
314.910278 0.097129 
314.962372 0.007737 
315.085907 0.154024 
315.122498 0.097533 
315.141052 0.035682 
315.159058 0.278493 
315.177917 0.461198 
315.210266 0.006701 
315.345551 0.226265 
317.87912 0.019262 
318.885071 0.014277 
320.097992 0.012368 
320.809875 0.015729 
320.82901 0.016608 
321.816437 0.02222 
322.390045 0.004068 
322.824463 0.25692 
324.162109 0.011564 
325.188965 0.011488 
326.177948 0.08559 
327.828186 0.008371 
329.836609 0.097184 
330.119293 0.011573 
330.921265 0.041146 
330.960907 0.028608 
331.844269 0.003787 
332.849274 0.003996 
335.823334 0.00688 
335.880005 0.003618 
338.177948 0.014838 
339.827332 0.013235 
END IONS

