BEGIN IONS
PEPMASS=103.05
CHARGE=1+
COMPOUNDNAME=CYCLOSERINE
LIBRARYQUALITY=3
SMILES=N/A
INCHIKEY=DYDCUQKUCUHJBH-UWTATZPHSA-N
INCHI=InChI=1S/C3H6N2O2/c4-2-1-7-5-3(2)6/h2H,1,4H2,(H,5,6)/t2-/m1/s1
MSLEVEL=2
SOURCE_INSTRUMENT=N/A-ESI-QFT
FILENAME=library_mgf.mgf
SEQ=*..*
IONMODE=positive
ORGANISM=MONA
NAME=CYCLOSERINE [M+H]+
PI=MoNA
DATACOLLECTOR=MoNA:VF-NPL-QEHF027811
PUBMED=N/A
SUBMITUSER=mwang87
TAGS=
SPECTRUMID=CCMSLIB00004721392
SCANS=27811
51.819363 0.004147 
52.660442 0.004946 
52.999538 0.004416 
53.002514 0.03963 
54.31023 0.004272 
54.384064 0.004691 
55.018265 0.004456 
55.054459 0.502169 
55.810509 0.073517 
55.93462 0.015753 
56.049736 2.066106 
56.058006 0.004741 
56.964935 0.20825 
57.045021 0.052811 
57.070164 0.076357 
57.861313 0.120298 
57.875679 0.004431 
57.935081 0.093752 
58.028988 46.285629 
58.065365 7.026876 
58.889561 0.004537 
59.024246 0.042101 
59.026001 0.01501 
59.032299 0.832364 
59.036793 0.004519 
59.049397 0.055579 
59.060577 0.026229 
59.06876 0.025496 
59.072987 0.004795 
59.263756 0.052109 
59.930462 0.005081 
59.940578 0.005203 
60.044605 6.080852 
60.055908 0.003988 
60.080997 17.600113 
60.864456 0.004799 
60.957851 0.013485 
61.039845 4.017332 
61.084324 0.260892 
62.023888 0.005722 
62.144203 0.004302 
62.993149 0.05532 
64.44915 0.00454 
65.980789 0.003566 
66.027161 0.003595 
66.136513 0.003815 
66.815987 0.004827 
66.87693 0.003853 
66.893471 0.123185 
67.186409 0.004059 
67.78933 0.005629 
67.820702 0.004735 
68.943649 0.004095 
69.033569 0.016677 
69.04483 0.017095 
69.746361 0.003951 
69.987511 0.005119 
70.028831 2.206766 
70.06514 0.00505 
71.032066 0.005039 
72.080757 2.562433 
72.62262 0.004018 
72.937172 0.017518 
73.039536 0.146261 
73.064781 1.405498 
73.084015 0.006916 
73.088715 0.017171 
73.611465 0.005136 
73.697395 0.003695 
74.02372 0.191077 
74.060028 2.526917 
74.094231 0.224592 
74.096428 15.576537 
75.055298 29.564983 
75.099808 0.449022 
76.039345 0.028802 
76.045815 0.081013 
76.052361 0.032917 
76.058624 0.527448 
77.158333 0.004267 
78.423584 0.123233 
79.054169 0.005651 
80.485703 0.005423 
81.314308 0.12483 
82.787094 0.004234 
83.138138 0.0833 
83.555656 0.004643 
84.044403 0.0861 
84.080734 0.287625 
84.088928 0.124989 
85.039528 0.757906 
85.076141 0.014334 
85.144875 0.004196 
85.979744 0.018568 
86.023621 0.050739 
86.035118 0.00489 
86.060005 0.477916 
86.09642 0.373847 
87.044029 0.583573 
87.052261 0.114797 
87.055283 2.653633 
87.975983 0.005018 
88.039284 3.328171 
88.042168 0.013917 
88.11808 0.004435 
88.463074 0.005022 
89.998734 0.005492 
90.041481 0.056797 
90.442841 0.004414 
90.622643 0.082828 
91.41729 0.005069 
95.049141 0.004322 
95.390556 0.004437 
95.892265 0.004471 
98.595963 0.004246 
99.512764 0.004915 
101.003181 39.31612 
101.071327 0.013839 
101.079071 2.498545 
101.107239 0.560089 
101.90686 0.037168 
102.002525 1.764165 
102.006531 4.979841 
102.054977 17.784683 
102.066078 0.964978 
102.07972 0.011105 
102.091377 0.707041 
102.127716 100.0 
102.486519 0.08161 
102.914619 0.656637 
102.968109 0.010428 
102.99894 14.543106 
103.007248 0.072851 
103.050179 2.111463 
103.054039 0.357305 
103.058128 0.716792 
103.08654 0.074821 
103.12484 0.110799 
103.131058 7.350519 
104.002289 0.097532 
104.034195 1.965287 
104.062103 0.006486 
104.070595 0.0336 
104.081833 0.407337 
104.106972 19.716223 
104.1343 0.016457 
104.707108 0.005387 
104.909912 0.072651 
104.917259 0.004614 
105.045105 0.005295 
105.065903 0.235291 
105.069832 0.417712 
105.110481 0.011451 
108.218163 0.004049 
109.368629 0.076262 
111.008003 0.004108 
111.326393 0.00409 
114.310356 0.094093 
117.862076 0.079989 
119.01371 0.009084 
119.756104 0.073871 
119.917488 0.034372 
120.630676 0.076735 
120.852028 0.080574 
120.925217 0.793252 
120.978798 0.005386 
122.920921 0.01327 
122.940933 0.014916 
124.244591 0.004322 
124.409477 0.083671 
END IONS

