BEGIN IONS
PEPMASS=333.166
CHARGE=1+
COMPOUNDNAME=SPECTINOMYCIN
LIBRARYQUALITY=3
SMILES=N/A
INCHIKEY=UNFWWIHTNXNPBV-WXKVUWSESA-N
INCHI=InChI=1S/C14H24N2O7/c1-5-4-6(17)14(20)13(21-5)22-12-10(19)7(15-2)9(18)8(16-3)11(12)23-14/h5,7-13,15-16,18-20H,4H2,1-3H3/t5-,7-,8+,9+,10+,11-,12-,13+,14+/m1/s1
MSLEVEL=2
SOURCE_INSTRUMENT=N/A-ESI-QFT
FILENAME=library_mgf.mgf
SEQ=*..*
IONMODE=positive
ORGANISM=MONA
NAME=SPECTINOMYCIN [M+H]+
PI=MoNA
DATACOLLECTOR=MoNA:VF-NPL-QEHF003419
PUBMED=N/A
SUBMITUSER=mwang87
TAGS=
SPECTRUMID=CCMSLIB00004694482
SCANS=3419
50.189976 0.041536 
50.36797 0.04341 
50.544441 0.04962 
50.562595 0.044841 
50.886971 0.033142 
51.281715 0.044667 
51.360157 0.038421 
52.404793 0.047851 
52.900574 0.034647 
52.939518 0.037763 
53.039303 0.44607 
53.593418 0.039569 
53.714062 0.043501 
53.911449 0.042058 
53.971233 0.04912 
54.043438 0.053159 
54.063892 0.049828 
54.514896 0.045772 
54.755444 0.038639 
54.827728 0.046517 
55.018551 0.192537 
55.054966 1.572496 
55.106049 0.046773 
55.158276 0.048179 
55.424423 0.038234 
56.050205 2.515628 
56.493389 0.035412 
56.521095 0.029518 
57.034214 3.978957 
57.689747 0.047618 
58.029465 0.39847 
58.065853 2.545254 
58.245323 0.036962 
58.315994 0.034381 
58.360039 0.050765 
58.84164 0.04167 
58.994656 0.023334 
59.0373 1.827309 
59.195431 0.04873 
59.262718 0.039406 
59.308342 0.040074 
59.394451 0.048676 
60.043484 0.035228 
60.045094 1.053415 
60.793819 0.045364 
61.369003 0.043155 
61.410076 0.046824 
62.01318 0.035339 
62.128643 0.021078 
62.262428 0.054718 
62.672279 0.038486 
62.78595 0.045598 
63.408897 0.046475 
63.676018 0.042804 
63.865688 0.033235 
63.883469 0.037756 
63.912292 0.050653 
65.114075 0.042036 
66.371574 0.042543 
66.710274 0.036329 
67.054985 0.035182 
67.327782 0.046515 
68.050148 2.911653 
68.162971 0.038646 
68.330856 0.046012 
68.562309 0.040307 
68.677895 0.049423 
69.034164 9.401578 
69.390602 0.045355 
70.037537 0.093408 
70.065773 14.242856 
71.049805 10.18454 
71.069153 0.045495 
71.247978 0.023291 
71.593742 0.037852 
71.870415 0.061362 
72.037842 0.036354 
72.045044 27.169207 
72.081413 0.023508 
72.288002 0.047613 
72.972481 0.035022 
73.029076 0.181086 
73.048332 0.110009 
73.052834 5.172813 
73.663124 0.036191 
74.060677 21.834597 
75.06411 0.082561 
76.478149 0.037507 
76.510704 0.028041 
78.224091 0.047169 
79.75824 0.032303 
80.050049 0.431007 
80.582588 0.043564 
81.034073 6.152606 
81.976471 0.023095 
82.065681 9.191811 
82.21817 0.043451 
82.553383 0.035123 
82.628288 0.047224 
83.049683 4.027044 
83.068962 0.04898 
83.073738 0.054599 
84.044952 4.764908 
84.081261 1.003153 
85.028954 5.570138 
85.052742 0.640898 
85.076561 6.291863 
85.214851 0.045672 
85.336601 0.044337 
86.060555 14.67671 
86.084297 0.15101 
86.966621 0.032692 
87.007927 0.051387 
87.044609 0.278014 
87.063911 0.136909 
87.092133 0.57711 
88.039825 0.072474 
88.076172 3.413857 
89.129005 0.034275 
89.143814 0.030348 
91.721962 0.038254 
92.006248 0.051314 
93.057716 0.032342 
93.427162 0.049468 
93.490921 0.046785 
93.74511 0.047549 
94.065544 20.10783 
94.198372 0.035408 
94.778435 0.03808 
95.068939 0.563655 
95.583199 0.047269 
96.044746 2.804922 
96.081161 3.545657 
97.007767 0.028691 
97.028824 0.323328 
97.052505 0.155739 
97.251434 0.043772 
98.060455 100.0 
98.179642 0.03655 
99.044449 26.386229 
99.047974 0.310308 
99.057571 0.051203 
99.063934 3.965824 
99.068192 3.888769 
99.689537 0.045749 
100.039665 8.496928 
100.047684 0.678526 
100.072517 0.358618 
100.07605 26.623758 
101.060043 1.241941 
101.079422 0.541903 
101.919495 0.053914 
102.055313 7.203147 
103.369766 0.052857 
105.2416 0.048349 
105.732666 0.049271 
106.407188 0.051121 
107.022003 0.037886 
107.889709 0.049318 
107.937279 0.038194 
108.081184 0.092621 
108.854752 0.042678 
108.928917 0.052655 
109.028679 6.362809 
109.906883 0.041507 
110.060303 6.515776 
110.083733 0.05684 
110.256226 0.045471 
110.317291 0.051261 
110.889503 0.050182 
111.044289 1.214802 
111.0681 0.489162 
111.512894 0.03096 
112.039536 5.616928 
112.071526 0.26392 
112.075905 25.485765 
112.099709 3.526078 
113.060234 0.030003 
113.079277 0.760449 
113.821091 0.043982 
114.055176 8.977038 
114.091515 1.650788 
115.058746 0.040502 
115.062897 0.150939 
115.090736 0.038526 
115.424805 0.036596 
116.034401 0.026998 
116.070786 42.953968 
117.074127 1.165975 
117.498459 0.050685 
117.603462 0.053649 
117.950989 0.023124 
118.360069 0.037363 
118.470032 0.043521 
119.085632 0.048789 
122.060196 31.009104 
123.063469 1.738423 
123.067963 0.645125 
123.091797 1.117378 
123.808891 0.049568 
124.038971 0.045499 
124.075806 6.153789 
125.060081 0.070499 
125.078987 0.072901 
125.10743 1.717012 
126.054932 1.112314 
126.091331 0.243579 
126.900909 0.037324 
127.039078 3.619543 
127.105331 0.045024 
128.046921 0.040918 
128.070648 4.062123 
129.054688 8.187525 
130.04985 0.358003 
130.0578 0.062846 
130.086227 0.999129 
130.572586 0.041974 
131.557007 0.042683 
131.616196 0.043411 
132.065475 0.44023 
132.101807 0.271318 
133.696701 0.040692 
134.561356 0.048175 
134.631012 0.037871 
135.091675 6.724422 
135.521912 0.045189 
136.07579 0.112736 
136.0952 0.042398 
138.054855 3.942453 
138.091446 0.241095 
139.062759 1.323068 
140.034317 0.041214 
140.070496 47.01815 
141.054459 0.170642 
141.073807 2.55173 
142.049667 0.054129 
142.086243 6.051761 
143.38266 0.02424 
144.065475 0.08539 
144.136032 0.04498 
145.049454 1.215672 
146.099213 0.057023 
149.643463 0.048165 
150.054062 0.0313 
150.311188 0.023039 
152.070419 0.593849 
153.102173 8.897398 
154.086166 3.171603 
154.105453 0.05767 
154.224991 0.044627 
155.088852 0.040004 
155.505753 0.051072 
155.99559 0.035684 
156.06543 4.310198 
156.102097 0.121216 
156.121338 0.031936 
158.081116 17.607174 
159.084579 0.393231 
159.892624 0.039107 
160.096741 0.623549 
162.054764 0.059395 
162.799911 0.02683 
166.491669 0.049008 
166.704865 0.059221 
167.071915 0.043496 
168.101929 0.05308 
168.298309 0.043418 
168.553604 0.042341 
168.596695 0.048795 
168.932327 0.053795 
170.081024 3.592564 
171.112671 0.500634 
172.096741 2.614737 
176.091553 0.303214 
176.552292 0.037199 
176.723877 0.038416 
177.030533 0.039981 
180.101974 0.121291 
182.081039 2.699722 
182.098495 0.045435 
183.009567 0.040273 
183.475952 0.051434 
184.060059 0.166915 
184.09671 1.499552 
184.983292 0.044748 
185.309479 0.047368 
186.076126 0.191429 
186.098846 0.049174 
186.57312 0.04438 
187.107605 1.405544 
188.443314 0.036456 
188.68663 0.042296 
189.113693 0.13968 
189.12323 25.687077 
190.126709 1.32937 
194.480759 0.047449 
196.096497 0.648901 
197.837845 0.045895 
198.075912 0.14057 
198.111923 0.081919 
199.107178 0.383531 
199.977982 0.050518 
200.09166 5.48462 
202.638992 0.054996 
205.118179 1.310165 
205.918839 0.044536 
207.133881 9.643554 
208.136612 0.051231 
212.091949 0.189553 
212.853149 0.052021 
214.107758 0.227575 
214.926758 2.798578 
217.118179 1.709237 
218.862946 0.037081 
219.540039 0.026632 
220.124237 0.047177 
221.551727 0.039865 
224.091324 0.160883 
225.548477 0.057505 
226.106903 0.14092 
226.767395 0.051802 
227.101929 0.054453 
227.138794 0.190342 
228.073563 0.056403 
228.086426 2.322427 
229.047791 0.051565 
230.102249 0.178034 
233.112549 0.061721 
238.107147 0.144424 
240.085922 0.040929 
241.419418 0.046564 
242.101715 0.749469 
243.133682 6.346729 
243.895477 0.058153 
244.118088 0.292044 
244.137497 0.149734 
245.113037 0.977779 
246.975616 0.03582 
247.128586 0.785948 
248.689682 0.050482 
250.541031 0.044404 
252.286514 0.050106 
256.117676 0.128473 
258.096985 0.606934 
259.315125 0.053031 
264.457367 0.039146 
266.102112 0.435214 
267.664307 0.040897 
269.149292 0.261979 
269.65918 0.050943 
271.164551 0.093048 
271.83847 0.054839 
272.317719 0.033422 
273.108215 0.052674 
275.461578 0.051869 
277.51535 0.046596 
279.364105 0.036847 
281.799316 0.041517 
284.112518 3.510528 
285.115143 0.114316 
286.128021 0.048584 
287.159698 0.625082 
289.176605 0.044633 
291.118286 0.461361 
298.21579 0.038415 
302.122986 3.859552 
305.131653 0.043143 
305.17038 2.099854 
309.309845 0.045462 
311.135834 0.032954 
315.154572 1.153098 
317.170135 0.323156 
323.281036 0.036048 
324.920441 0.036351 
326.367432 0.051404 
331.744965 0.031733 
332.127441 0.044432 
332.662262 0.044877 
333.165222 29.337191 
334.168884 4.945714 
335.181152 4.797146 
339.623169 0.032656 
343.384674 0.042803 
345.30542 0.038052 
347.729736 0.04142 
352.574036 0.045297 
356.463959 0.043844 
END IONS

