BEGIN IONS
PEPMASS=1422.76
CHARGE=1+
COMPOUNDNAME=BACITRACIN
LIBRARYQUALITY=3
SMILES=N/A
INCHIKEY=CLKOFPXJLQSYAH-NVOBBBONSA-N
INCHI=InChI=1S/C66H103N17O16S/c1-9-35(6)52(69)66-81-48(32-100-66)63(97)76-43(26-34(4)5)59(93)74-42(22-23-50(85)86)58(92)83-53(36(7)10-2)64(98)75-40-20-15-16-25-71-55(89)46(29-49(68)84)78-62(96)47(30-51(87)88)79-61(95)45(28-39-31-70-33-72-39)77-60(94)44(27-38-18-13-12-14-19-38)80-65(99)54(37(8)11-3)82-57(91)41(21-17-24-67)73-56(40)90/h12-14,18-19,31,33-37,40-48,52-54H,9-11,15-17,20-30,32,67,69H2,1-8H3,(H2,68,84)(H,70,72)(H,71,89)(H,73,90)(H,74,93)(H,75,98)(H,76,97)(H,77,94)(H,78,96)(H,79,95)(H,80,99)(H,82,91)(H,83,92)(H,85,86)(H,87,88)/t35?,36?,37?,40-,41+,42+,43-,44+,45-,46-,47+,48?,52?,53-,54-/m0/s1
MSLEVEL=2
SOURCE_INSTRUMENT=N/A-ESI-QFT
FILENAME=library_mgf.mgf
SEQ=*..*
IONMODE=positive
ORGANISM=MONA
NAME=BACITRACIN [M+H]+
PI=MoNA
DATACOLLECTOR=MoNA:VF-NPL-QEHF027766
PUBMED=N/A
SUBMITUSER=mwang87
TAGS=
SPECTRUMID=CCMSLIB00004721347
SCANS=27766
98.096367 0.054517 
101.107391 0.413455 
101.428902 0.031649 
102.054947 7.408072 
103.054543 0.026181 
103.058372 0.247612 
106.848351 0.016964 
108.99752 0.015156 
110.071228 100.0 
110.09626 0.080117 
110.352104 0.022661 
110.455643 0.026461 
111.068214 1.428956 
111.074539 7.355209 
111.091599 2.257305 
112.071541 0.014861 
112.0756 0.599912 
112.086983 0.062985 
112.112259 0.049194 
112.406319 0.02682 
112.861252 0.025533 
113.107201 0.147536 
113.648972 0.013125 
114.102562 0.373905 
115.086571 8.46593 
115.09079 0.082719 
116.070419 0.036046 
116.08979 0.412069 
119.379448 0.024226 
120.080788 5.066397 
121.039619 0.048442 
121.084068 0.315636 
122.071388 0.437485 
122.109398 0.015954 
123.055275 0.260427 
123.833336 0.029411 
124.039314 0.03219 
124.111992 0.015094 
125.070854 0.08253 
125.107346 0.115769 
128.118332 0.078993 
129.065689 0.060452 
129.102127 26.445803 
130.086334 0.041531 
130.100449 0.046254 
130.105484 2.427676 
131.027618 0.031959 
131.117889 0.331825 
131.530655 0.031248 
132.113342 0.01412 
135.091568 0.149227 
135.229858 0.020236 
136.07576 0.471761 
136.086975 1.652599 
136.112244 0.022024 
136.463333 0.030664 
137.071121 0.030269 
137.090256 0.048132 
137.1073 0.76676 
138.066132 4.862615 
138.127655 0.410467 
139.069366 0.112179 
139.086517 8.845222 
139.123093 0.037046 
140.089951 0.673882 
141.102249 0.534694 
141.227921 0.016423 
143.045135 0.183143 
143.081406 0.098421 
144.944611 0.018939 
145.220932 0.027771 
146.096344 0.018692 
146.128693 2.597404 
147.112671 0.0348 
148.086792 0.115736 
148.197861 0.028957 
148.879623 0.02532 
152.094666 0.012106 
152.14325 0.069256 
153.10228 0.639913 
154.158951 0.826215 
155.092621 4.783647 
155.117813 0.644035 
156.076614 2.20381 
156.08345 0.027347 
156.096329 0.162821 
156.113129 3.755954 
156.119324 0.029652 
157.080231 0.038124 
157.096954 0.212805 
157.11647 0.178828 
159.091461 0.035417 
162.065887 0.058301 
162.102417 2.937259 
163.086441 2.57582 
163.098175 0.209194 
163.10585 0.039102 
164.070435 2.298433 
164.081955 0.852035 
164.089478 0.149254 
165.077057 1.821401 
165.083588 0.028349 
165.102356 0.449251 
165.113251 0.203127 
165.138565 0.115672 
165.665741 0.029595 
166.05365 0.056058 
166.06105 8.129327 
167.06456 0.730009 
167.081528 0.737617 
167.15419 0.131995 
168.102341 0.033959 
169.133362 0.03835 
170.029739 0.02436 
171.095184 0.107764 
172.078934 0.069032 
172.112152 0.11874 
173.033325 0.019805 
175.086853 0.033567 
176.118088 0.776307 
176.252228 0.031115 
177.138611 1.545932 
177.146317 0.017471 
178.13385 1.43466 
178.14183 0.09171 
179.118317 0.031816 
180.076691 0.435025 
180.113113 1.035917 
181.097198 11.921065 
181.108231 6.072407 
181.133362 0.515959 
182.050156 0.029496 
182.082397 0.040776 
182.100586 1.572398 
182.111771 0.375304 
182.165161 1.071301 
182.227036 0.02643 
183.087677 0.043604 
183.112671 1.038834 
183.1492 3.204642 
183.168655 0.07114 
184.107971 0.382288 
184.15274 0.038216 
184.181152 0.342654 
185.05571 0.997708 
185.091858 0.064953 
186.127686 0.063622 
188.143188 0.531454 
189.113419 0.391806 
190.060867 0.119856 
190.097733 0.351128 
190.134171 0.109278 
190.227158 0.029562 
191.082855 0.429238 
191.092529 2.170493 
191.117844 0.841978 
191.424728 0.02712 
191.640167 0.031973 
192.122177 0.021416 
192.149445 0.060663 
193.133514 4.26176 
193.833252 0.031772 
194.091354 0.02193 
194.137009 0.363288 
195.062332 0.033681 
196.043945 0.772765 
196.144348 0.19602 
196.181274 0.018702 
197.074265 0.95868 
197.128464 2.304006 
197.16481 0.545743 
198.058151 0.135393 
198.123642 18.534357 
198.133835 0.423912 
198.15976 0.02336 
199.089966 6.96206 
199.107605 1.292998 
199.127304 2.488943 
200.093063 0.085434 
200.11116 0.031746 
200.175934 0.803866 
200.231018 0.034321 
200.779968 0.035489 
201.179138 0.039465 
202.08226 0.58062 
206.128067 0.160434 
206.165466 0.021623 
207.087814 1.291283 
207.113434 0.417663 
207.12384 5.774671 
207.149063 0.501283 
208.071823 0.298613 
208.10791 2.444014 
208.127213 0.522228 
208.144379 1.979192 
209.092026 1.61314 
209.102509 0.042592 
209.112152 0.099726 
209.128555 0.799821 
209.148575 0.029312 
210.095673 0.054135 
210.12326 0.030903 
210.160065 13.242965 
211.144257 2.05169 
211.163483 2.113793 
212.066574 0.365821 
212.1026 0.07084 
212.118042 4.122303 
212.147858 0.093136 
213.050644 0.501509 
213.069244 1.779234 
213.121918 0.625677 
214.042755 0.017619 
214.053192 2.524024 
214.072525 0.082271 
215.055908 0.13551 
215.139069 2.852497 
216.116531 0.0184 
216.141891 0.074574 
217.072479 0.030898 
217.097977 0.014196 
217.108704 0.493278 
217.133621 0.545107 
219.124893 0.034027 
220.143921 0.015711 
220.181015 0.054655 
221.139297 0.173291 
221.681259 0.026957 
222.103867 0.060777 
222.123154 0.023358 
224.118317 0.87245 
224.139404 0.739432 
224.175766 0.957173 
225.069214 2.518559 
225.09816 1.451188 
225.123062 1.154364 
225.134659 1.226592 
225.170807 0.782675 
226.072174 0.074344 
226.106796 0.023914 
226.118332 3.41875 
226.155045 1.127835 
227.084763 7.803903 
227.121704 0.274062 
228.088211 0.372773 
228.170532 5.441071 
229.174011 0.638387 
230.077011 3.539657 
231.080338 0.084663 
231.149185 0.303724 
233.164825 2.969087 
234.09874 1.132587 
234.123611 0.186567 
234.158051 0.018806 
234.168701 0.230578 
235.082535 11.373713 
235.105103 0.050442 
235.155579 0.17193 
236.066757 0.512616 
236.085831 1.568798 
236.102631 0.4072 
236.139328 1.071805 
236.175873 0.136722 
236.942398 0.028822 
237.085983 0.071533 
237.098312 0.54391 
238.155014 1.825271 
239.128983 0.485663 
239.157364 0.04245 
240.113144 0.669617 
241.11647 0.034891 
241.144714 0.681568 
242.149261 0.371669 
242.18602 3.127985 
243.133575 1.739941 
243.145874 2.041088 
243.181274 13.165078 
244.129135 0.096195 
244.14801 0.015733 
244.185104 2.192114 
244.715012 0.037292 
245.165176 0.028804 
245.567581 0.036016 
248.175415 0.054586 
249.158859 0.032178 
250.154053 0.070869 
251.077988 0.021499 
251.151047 0.061982 
252.009842 0.020592 
252.10907 9.014119 
252.133194 0.398576 
252.170792 1.764484 
253.093018 45.659142 
253.115677 0.262192 
253.165619 13.695696 
254.096481 7.204202 
254.113007 1.342407 
254.169525 3.012199 
255.097931 0.638296 
255.172302 0.031984 
255.517044 0.030419 
256.165375 0.067672 
257.139526 11.756111 
257.163391 0.031912 
258.14325 2.575317 
258.157928 0.0434 
258.547455 0.023016 
259.180847 0.143767 
259.213074 0.13453 
260.171967 2.979071 
261.158661 1.64301 
261.174316 0.250206 
262.093628 0.170674 
262.155457 0.067549 
263.077454 2.567538 
264.080902 0.263425 
265.136719 2.339311 
266.186127 0.664024 
267.124756 2.864421 
267.152222 0.884521 
268.107849 11.498699 
268.125519 0.815149 
269.111694 2.696307 
269.139465 0.249395 
269.19693 0.52929 
270.119598 6.678991 
271.104126 0.644256 
271.12326 0.966792 
271.141266 4.361479 
271.17691 0.037361 
272.124908 0.098806 
272.144836 0.471258 
273.147034 0.025845 
276.145447 0.029313 
277.129456 0.030612 
277.153809 0.284559 
278.112213 2.733602 
278.151062 0.038849 
278.186279 0.174166 
279.097473 1.666978 
279.115875 0.6336 
279.181702 0.181245 
280.103363 1.428867 
280.140656 0.021536 
280.165344 0.78872 
281.088409 4.304449 
281.131561 55.119743 
282.091705 0.463167 
282.108887 0.161477 
282.135223 19.132013 
282.161835 4.431068 
283.126434 5.64824 
283.148499 2.605757 
283.166321 0.602847 
283.201813 0.04161 
284.131653 0.344063 
284.150574 1.250422 
284.178589 3.188989 
285.134369 42.011883 
285.161804 9.164589 
286.138031 10.013805 
286.166077 0.310874 
287.079041 0.02101 
287.140228 0.818511 
288.108826 0.196002 
289.09314 0.051791 
290.435669 0.031845 
293.132477 0.399461 
294.181183 0.732408 
295.118439 1.763385 
295.141022 3.748049 
295.176697 0.43231 
296.123444 6.687885 
296.14093 0.777954 
296.180054 0.039179 
297.126984 1.822614 
297.143738 0.277348 
297.192841 0.126079 
298.010193 0.022147 
298.140137 0.089917 
298.158264 0.551383 
299.137512 0.148842 
301.94928 0.035557 
302.161102 1.867522 
303.145142 0.546836 
303.164429 0.16329 
304.104218 1.593797 
304.166626 0.465329 
304.184967 0.636443 
305.106049 0.033394 
305.161041 1.802669 
306.120911 0.441764 
306.145111 0.032154 
306.16394 0.147632 
307.176544 0.04392 
308.142242 0.018424 
308.160248 0.099859 
309.126556 43.787983 
310.129761 16.391169 
310.157379 3.179945 
311.120789 4.377342 
311.142273 2.219813 
311.162201 0.371798 
312.125397 0.361653 
312.144745 0.231149 
312.173431 1.975241 
312.20639 0.033853 
313.129242 2.781792 
313.152802 13.499373 
313.190826 0.840688 
314.133331 0.742094 
314.154419 2.580359 
314.19342 0.07031 
315.154755 0.033893 
315.199615 0.035935 
318.209961 0.027454 
320.20874 0.017602 
320.244873 0.112942 
321.130768 0.134012 
321.155029 0.030371 
321.227631 0.154996 
322.114716 2.692719 
322.133606 0.022509 
322.153442 0.026219 
322.187744 1.648481 
323.116455 0.200206 
323.13562 1.787304 
323.170593 3.878638 
324.118896 1.410059 
324.138214 0.189965 
324.174255 0.730897 
324.202148 0.066805 
325.121674 1.357111 
325.18515 0.079807 
325.204407 0.358697 
326.134247 0.035794 
326.152832 0.363703 
327.131348 0.080756 
327.169067 0.042191 
328.132965 0.399543 
328.176666 0.940193 
328.27179 0.013819 
329.180481 0.132809 
330.217926 0.0247 
331.11499 0.152033 
332.098724 1.566714 
332.12085 0.101612 
332.170197 0.030544 
333.101807 0.046917 
335.186432 0.670867 
335.21756 0.028425 
336.19046 0.164047 
337.129211 0.23326 
337.20282 0.045446 
337.23642 0.034604 
337.782196 0.032011 
338.160431 0.130149 
338.219208 0.478222 
338.254913 2.439759 
339.141083 3.34682 
339.161957 0.103083 
339.215363 0.88048 
339.258514 0.23997 
340.142822 0.177713 
340.163116 0.707701 
340.199341 7.999957 
341.145386 3.77157 
341.184906 1.234122 
341.204956 1.806456 
342.149536 0.63712 
342.18808 0.163875 
343.161133 0.355038 
344.160431 0.035924 
344.5 0.034033 
345.202606 0.049234 
345.228699 0.059054 
346.149902 0.058928 
347.243622 0.39025 
348.203888 0.023542 
348.240143 1.135732 
349.125092 19.362461 
349.189087 0.034648 
349.242493 0.119148 
350.108704 8.491397 
350.129364 3.443488 
350.183441 0.406637 
351.111267 1.850801 
351.13269 0.489936 
352.11377 0.100433 
352.212494 0.036743 
353.195709 0.017637 
353.218506 0.440163 
354.11145 0.188937 
354.204559 0.020732 
354.228271 1.572166 
355.140045 0.493013 
355.232239 0.275558 
356.127106 10.028102 
356.229553 0.284087 
356.265472 1.789683 
357.130188 0.948829 
357.189056 0.075895 
357.224396 8.433796 
357.26651 0.144915 
358.171814 4.106464 
358.208466 0.953078 
358.228943 1.556038 
359.110962 0.030355 
359.154327 0.05004 
359.175446 0.636202 
359.214203 0.083033 
360.093933 0.55794 
363.179779 0.477291 
363.203003 0.294945 
364.140137 0.286022 
364.184082 0.031555 
365.124176 1.68635 
366.127411 0.372011 
366.214508 0.101524 
366.249817 1.641957 
367.135681 26.462168 
367.205475 0.06011 
367.252716 0.249063 
368.139404 5.512547 
368.192963 1.753189 
369.140686 2.498307 
369.195343 0.34155 
370.143921 0.122556 
370.223206 0.435457 
371.182251 0.101321 
371.22757 0.238504 
372.165344 0.028091 
373.255127 0.070042 
375.198944 1.795936 
375.238983 1.244237 
375.81131 0.022132 
376.202271 0.079828 
376.239471 0.227727 
377.120056 2.467405 
377.182129 0.021933 
378.103149 4.849947 
379.107086 1.246237 
380.110168 0.060652 
380.207672 4.960893 
381.212616 3.127142 
382.150452 5.749726 
382.215149 0.320486 
383.154236 1.696093 
384.160339 0.156842 
384.202209 0.170933 
384.22641 0.01807 
385.145996 0.126599 
385.226044 0.06549 
386.166473 2.487137 
387.172638 0.438149 
388.161774 0.119401 
389.192383 0.076183 
390.250153 0.132394 
391.172516 0.279425 
392.265533 0.082981 
393.224365 0.072582 
394.208069 0.36028 
395.130646 7.43253 
395.211182 0.7125 
396.133942 1.508396 
396.194427 0.048579 
397.138031 0.040206 
397.262665 0.139529 
398.218262 12.26917 
399.177216 1.776943 
399.22113 4.274221 
400.160919 31.933903 
400.223358 0.100704 
401.164032 10.494232 
402.167236 1.556913 
403.233368 0.038445 
405.1875 1.846099 
406.191742 0.291195 
407.276672 0.022091 
408.202515 0.672008 
408.26001 0.141456 
409.207367 0.378025 
410.145264 3.102669 
410.202667 0.172816 
411.149445 0.65715 
411.207092 0.021259 
412.218536 0.408935 
413.221924 1.540608 
414.205231 0.113515 
415.171783 2.72718 
415.198608 0.140083 
415.244354 0.432233 
416.176056 0.49358 
416.201385 0.017394 
416.228241 0.039052 
417.187653 2.085363 
417.262726 0.033663 
418.191437 0.193032 
418.243591 0.581103 
419.166931 0.599951 
419.200745 0.068576 
419.249176 0.062505 
420.158478 0.338049 
420.188019 0.299889 
421.190491 0.029999 
423.205536 1.185932 
424.156219 0.204832 
424.189484 1.049064 
425.286926 0.021195 
426.21283 1.652464 
427.172546 1.300752 
427.212372 0.062265 
427.238525 0.026575 
428.154907 3.621639 
429.159058 1.168123 
431.250183 0.025106 
432.198883 2.401262 
432.228577 0.052399 
433.181824 12.431266 
434.152863 0.023667 
434.184998 4.655629 
435.19397 0.76512 
435.270721 1.398576 
436.192078 0.1125 
436.225067 0.08077 
436.253937 0.412813 
437.214569 2.266117 
437.259521 0.107132 
438.168915 18.966944 
438.197876 1.000938 
438.282135 0.024633 
439.171692 10.789835 
439.201324 1.439955 
440.168762 3.135894 
440.210907 0.352211 
441.184265 0.723107 
441.21637 4.764339 
441.252594 0.074399 
442.199951 11.49592 
443.166199 0.308909 
443.202454 0.878386 
444.199921 0.025082 
445.182251 0.022427 
447.198486 0.190915 
450.208954 11.892694 
450.240784 0.44299 
451.173218 0.424272 
451.212463 3.938837 
451.338348 0.501864 
452.176788 0.043948 
452.218079 0.499409 
452.29718 4.762964 
452.333527 0.022467 
452.343964 0.019735 
453.280121 1.327398 
453.30365 0.46649 
454.162689 0.229951 
454.235229 1.752867 
454.282104 0.40497 
455.193481 0.503342 
455.224457 7.544548 
456.227844 2.300671 
457.234039 0.102293 
460.19339 1.639323 
460.227936 0.045529 
461.17746 0.633732 
461.322235 0.156389 
462.210175 0.045529 
463.193939 0.077582 
463.264771 0.025147 
464.188293 0.188619 
465.210846 0.33496 
466.292358 0.037043 
467.238373 0.341797 
467.27359 0.479524 
468.245056 0.24998 
468.278687 0.044743 
469.182037 5.219076 
469.213257 1.428813 
469.24292 0.019871 
470.184937 2.285094 
470.308838 1.789866 
471.187805 0.18043 
471.255981 0.354128 
471.312012 0.297549 
472.251495 4.300212 
473.253754 1.294063 
477.22052 1.410249 
478.20343 3.332934 
479.166931 1.817633 
479.206512 1.091315 
480.169189 0.097317 
480.217773 0.342622 
480.292419 0.06602 
481.216034 0.136098 
482.226746 0.322144 
483.220062 1.041649 
484.224091 0.078249 
484.302734 1.519518 
485.269531 0.127198 
485.307281 0.652191 
486.20929 4.537083 
487.211517 1.63479 
488.186218 0.369403 
488.219513 0.042211 
489.283478 0.023703 
492.184357 0.207245 
494.248962 0.286155 
494.287903 0.76486 
495.231812 4.484979 
495.268921 0.605639 
496.193054 1.840486 
496.233887 1.681065 
496.271118 0.025897 
497.176422 7.212381 
498.180054 2.813659 
499.184113 0.181116 
499.228638 0.094846 
503.333862 0.332126 
504.33429 0.027292 
505.213318 0.893678 
505.248291 1.246634 
506.199829 2.001098 
506.250427 0.767695 
507.160828 0.074555 
507.201263 0.328249 
509.278778 0.79086 
512.257751 2.485598 
512.298096 3.288404 
513.244812 12.90787 
513.299927 1.071854 
514.204346 16.074066 
514.24823 5.668645 
515.207581 5.739098 
515.25116 1.139206 
516.208679 0.808114 
516.252197 0.023388 
522.243286 0.064733 
523.225281 4.94449 
524.188232 1.686042 
524.228943 1.644447 
525.173889 1.55584 
526.176025 0.474458 
526.305664 1.025731 
530.273804 0.320241 
531.269531 0.174536 
533.241211 0.086424 
534.195007 0.130508 
534.24176 0.196876 
536.293457 0.037065 
538.237427 0.045738 
538.2771 0.827345 
539.276978 0.143695 
539.401917 0.257533 
540.253113 0.099148 
540.319824 0.032221 
541.241516 0.426285 
542.199158 2.358142 
542.23999 0.092772 
543.201843 0.670867 
546.271179 0.115162 
547.263794 0.39738 
550.298218 0.719263 
551.253174 1.749984 
551.297363 0.117748 
552.253723 2.503289 
553.257324 0.960115 
554.255676 0.030505 
554.30127 1.325572 
555.283997 1.291776 
556.257385 0.045957 
557.24884 0.040998 
557.277405 0.018358 
561.260742 0.029515 
562.240784 1.751177 
562.283508 0.030051 
563.243958 0.691313 
563.291016 0.027017 
564.250671 0.077779 
564.291565 1.027518 
565.256226 0.206303 
565.296814 0.042603 
565.382141 1.129546 
566.234314 0.161201 
566.373535 0.275933 
567.244019 0.023713 
567.325317 2.195027 
567.368958 0.03672 
568.257446 0.031325 
568.31665 1.045747 
569.315552 0.191337 
573.282898 0.218247 
574.27179 1.930957 
575.261902 0.93097 
576.258362 0.049777 
577.271667 0.133774 
578.298462 0.03708 
579.264404 0.624074 
580.250305 5.370943 
581.250732 2.546773 
581.323425 0.186695 
582.265686 4.817883 
583.267944 2.832725 
583.391724 0.228428 
584.271301 0.55464 
585.335449 0.70131 
586.338562 0.113217 
589.248596 0.032559 
590.241272 0.103877 
590.365601 0.060999 
591.297363 2.676512 
591.357178 0.042155 
592.28833 4.331746 
593.286987 1.926462 
594.288391 0.259945 
596.248657 0.035875 
597.277039 0.437079 
598.281067 0.105118 
598.393982 0.040529 
599.291443 1.158077 
600.296875 0.791729 
601.294312 0.093098 
602.267334 0.459806 
607.260193 0.571006 
608.258179 0.1679 
608.318298 0.405762 
609.315369 5.554715 
610.258728 5.494474 
610.31311 2.463097 
611.260559 3.22295 
611.312012 0.527659 
612.264404 0.681427 
612.403137 0.023617 
613.268311 0.136542 
619.290039 0.460989 
620.280884 1.703072 
621.282715 0.258667 
624.28656 0.408813 
625.273315 1.971805 
625.34552 0.020063 
626.275024 0.620979 
627.28125 6.779863 
627.333313 0.73462 
628.284058 3.029512 
629.289001 0.49696 
635.255737 0.290771 
635.3349 0.016077 
636.257263 0.027544 
636.31311 0.109257 
637.266663 0.457726 
637.317383 0.09174 
638.263855 0.210997 
639.255371 0.136947 
640.391602 0.245429 
642.297424 1.863016 
643.299194 0.833745 
650.370605 0.053114 
651.321838 0.051291 
652.279114 0.043725 
653.267761 1.542382 
654.27124 0.445107 
655.274231 0.033366 
655.319885 0.054811 
659.322327 0.103156 
660.333801 0.03827 
661.337891 0.04548 
664.381592 0.06898 
669.344116 0.083087 
670.29303 0.710682 
671.294556 0.125383 
675.323792 0.389071 
676.321411 0.226568 
677.382629 0.164285 
678.336487 0.165197 
679.325317 0.633824 
680.332153 0.225447 
680.407837 0.201329 
681.408325 0.117936 
682.398987 0.039679 
686.37085 0.121393 
687.358643 0.825064 
688.354431 0.170905 
689.32959 0.190686 
690.332275 0.132367 
692.38031 0.436483 
693.337646 1.768095 
694.335266 1.256608 
694.419739 0.145973 
695.339844 0.163243 
696.345337 1.978362 
697.352173 1.021141 
698.355469 0.231477 
699.422607 0.028079 
702.324707 0.063815 
703.323181 0.26093 
704.319763 0.419954 
704.383484 2.316162 
705.379272 1.685646 
706.329041 1.657786 
706.389893 0.065198 
707.322449 1.831411 
708.319824 0.706385 
710.133667 0.038659 
710.359619 0.169562 
711.35968 0.478965 
712.359375 0.129367 
713.373962 0.154419 
714.005249 0.033244 
714.37616 0.092081 
715.367493 0.123016 
716.367065 0.03901 
720.340088 0.87587 
721.34021 1.863902 
722.331482 0.884803 
722.397705 0.085118 
723.347656 0.650638 
724.341125 5.07839 
725.343201 3.00448 
726.345642 0.611713 
737.360962 0.105944 
738.359497 2.079408 
739.353516 3.801324 
740.356262 1.800316 
741.365845 2.824212 
742.368286 1.18209 
743.369812 0.089069 
748.336304 0.196946 
749.333923 0.504467 
750.331665 0.067449 
752.335266 0.280759 
753.336121 0.071386 
755.381226 0.332681 
756.376892 1.872064 
757.379395 0.915801 
758.373291 0.048386 
759.377319 0.037692 
761.405518 0.024436 
762.388489 0.074101 
765.400757 0.209757 
766.348938 0.718639 
767.348938 0.651747 
775.39801 0.083081 
776.380676 0.303905 
777.374878 0.112669 
779.417297 0.18432 
783.377502 0.126755 
784.374939 0.07427 
789.406189 0.378122 
790.392273 0.260025 
792.41925 0.064897 
793.422302 0.169132 
793.501038 0.034861 
794.428528 0.159035 
799.385986 0.038385 
806.444885 0.791168 
807.417603 1.498051 
808.416626 0.427863 
809.438721 0.109922 
816.416077 0.21011 
817.397278 0.262085 
817.475952 0.087133 
818.471252 0.07096 
824.444336 1.869756 
825.442322 0.990471 
833.426453 0.282204 
834.423401 2.348063 
835.420532 1.89965 
836.416992 0.444403 
837.428101 0.131887 
838.411133 0.047405 
841.466736 0.500427 
842.467163 0.253802 
844.386414 0.027429 
847.410278 0.032866 
851.448608 2.545975 
852.438965 4.63647 
853.441101 2.487034 
854.438171 0.534431 
862.420837 0.152002 
862.515808 0.028361 
863.418701 0.02644 
863.522156 0.068754 
863.727539 0.023585 
867.406799 0.032379 
869.462036 3.468224 
870.465881 2.135841 
871.473511 0.44138 
872.483276 0.074465 
873.46759 0.041821 
879.443542 0.287932 
880.438171 0.234973 
881.445557 0.019539 
888.496094 0.63957 
889.50116 1.677764 
890.502808 0.717759 
891.542053 0.136678 
892.53125 0.37205 
897.4505 0.121109 
898.477661 0.313415 
899.484192 1.134324 
900.48877 0.199174 
901.526123 0.070061 
902.505127 0.032086 
906.508118 0.225751 
907.510742 1.285332 
908.511902 0.60245 
917.494934 0.400189 
918.501282 0.098844 
920.504883 0.865855 
921.496521 0.270469 
930.479187 0.036336 
938.514709 0.121573 
946.402771 0.100765 
946.512939 0.054136 
947.508606 0.381303 
948.504639 0.044974 
960.565247 0.038405 
963.434692 0.30065 
964.52948 0.198084 
965.5271 0.484555 
966.530212 0.093743 
969.493652 0.239911 
970.487244 0.039909 
975.544434 0.139253 
976.553589 0.577908 
977.565002 1.399594 
978.565979 0.956436 
979.580078 0.074562 
982.544434 0.045363 
986.513367 0.466017 
987.511047 0.535819 
988.52002 0.05546 
989.532837 0.083039 
1001.4729 0.04106 
1002.54303 0.154702 
1003.543396 2.118586 
1004.537537 2.222198 
1005.532776 0.901372 
1006.573792 0.461876 
1007.568787 0.08633 
1019.48822 0.02651 
1020.549011 0.165412 
1021.554688 1.605327 
1022.554626 1.118864 
1023.57196 0.144341 
1024.583008 0.058248 
1028.461182 0.190165 
1029.453491 0.640578 
1030.455811 0.278773 
1031.483643 0.124082 
1032.476318 0.067493 
1035.528442 0.033382 
1045.475952 0.025403 
1046.478271 1.074958 
1047.477661 0.626614 
1048.519897 0.095456 
1049.505615 0.199891 
1063.511108 0.030781 
1075.565552 0.030196 
1076.552856 0.052228 
1077.518555 0.057765 
1086.560181 0.037505 
1094.562378 0.032768 
1098.052124 0.040679 
1101.540771 0.031297 
1102.539673 0.08748 
1103.560669 0.046153 
1115.526611 0.038681 
1118.569702 0.795938 
1119.566162 0.991778 
1120.584106 0.13593 
1121.593262 0.155539 
1130.540894 0.047622 
1136.583374 0.335 
1137.578979 0.373146 
1138.595825 0.081225 
1139.598267 0.018816 
1143.531006 0.222875 
1144.530273 0.036451 
1145.565063 0.042645 
1147.564697 0.054151 
1160.558472 0.213042 
1161.555908 0.112919 
1172.585205 0.119124 
1179.118164 0.039373 
1196.594849 0.034167 
1206.65918 0.029907 
1228.626099 0.043749 
1229.642578 0.272934 
1230.647827 0.142514 
1238.61145 0.061894 
1240.616699 0.03422 
1255.630371 0.539232 
1256.630127 0.534592 
1257.651001 0.225045 
1258.655396 0.277988 
1275.619507 0.050985 
1292.633179 0.019177 
1320.645996 0.047724 
1376.714355 0.336666 
1377.723511 0.430492 
1379.758057 0.021055 
1402.684204 0.034025 
1403.69751 0.167836 
1404.7146 0.1206 
1405.706665 0.222065 
1406.714111 0.041581 
1423.704224 0.035725 
END IONS

