BEGIN IONS
TITLE=Scan Number: 3871
PEPMASS=566.28003
CHARGE=0+
COMPOUNDNAME=Coelichelin
LIBRARYQUALITY=3
SMILES=CC(C(C(=O)N(CCCC(C(=O)O)NC(=O)C(CCCN(C=O)O)N)O)NC(=O)C(CCCN(C=O)O)N)O
INCHIKEY=ZPJLQAOTGYKOBJ-UHFFFAOYSA-N
INCHI=1S/C21H39N7O11/c1-13(31)17(25-19(33)15(23)6-3-9-27(38)12-30)20(34)28(39)10-4-7-16(21(35)36)24-18(32)14(22)5-2-8-26(37)11-29/h11-17,31,37-39H,2-10,22-23H2,1H3,(H,24,32)(H,25,33)(H,35,36)/t13-,14-,15-,16+,17-/m1/s1
MSLEVEL=2
SOURCE_INSTRUMENT=LC-ESI-qTof
FILENAME=f.mice/SC_-Fe_+Fe_YEME_Langzeit_Anfang_2015/160113_CYA_14_w_V.mzXML;
SEQ=*..*
NOTES=
IONMODE=Positive
ORGANISM=GNPS-LIBRARY
NAME=Coelichelin M+H
SPECTRUMID=CCMSLIB00003739957
ACTIVATION=CID
INSTRUMENT=ion trap
SCANS=3871
51.561996 15.0 
53.364346 25.0 
68.091965 67.0 
70.109657 24.0 
70.113319 24.0 
74.105576 69.0 
86.112389 168.0 
96.101059 19.0 
105.052216 11.0 
113.130684 121.0 
114.117218 274.0 
114.140541 50.0 
114.537323 9.0 
115.12677 17.0 
115.164246 140.0 
116.107849 26.0 
116.126663 23.0 
117.050568 40.0 
118.14415 40.0 
119.028397 28.0 
126.142578 10.0 
126.152382 9.0 
131.143341 2630.0 
131.168335 5.0 
131.17334 5.0 
131.208328 30.0 
131.233353 28.0 
131.283356 33.0 
132.125046 105.0 
132.145126 175.0 
132.391144 13.0 
132.657501 11.0 
133.085236 7.0 
133.145676 16.0 
135.061691 9.0 
136.068115 41.0 
141.125137 30.0 
142.107025 67.0 
143.139313 33.0 
145.109894 14.0 
147.06749 17.0 
149.112823 10.0 
149.13414 44.0 
149.155457 869.0 
149.19278 30.0 
149.246124 16.0 
150.154144 53.0 
150.807495 7.0 
154.127991 8.0 
154.893143 14.0 
158.000061 13.0 
159.126984 73.0 
159.143509 349.0 
160.141891 61.0 
161.143372 47.0 
161.431671 16.0 
165.141296 20.0 
169.057632 9.0 
169.159821 58.0 
169.171188 45.0 
172.870605 7.0 
177.155807 199.0 
177.18486 18.0 
177.248779 13.0 
178.156616 58.0 
181.129013 60.0 
183.143951 35.0 
186.193207 27.0 
186.360046 10.0 
187.171432 95.0 
188.170181 8.0 
191.134064 8.0 
195.156494 14.0 
198.150101 51.0 
199.134552 9.0 
205.07373 34.0 
205.330139 14.0 
206.075226 12.0 
206.156693 84.0 
207.091705 133.0 
207.827393 13.0 
208.098099 33.0 
208.677872 11.0 
209.05011 24.0 
209.138489 16.0 
209.15744 65.0 
210.149841 27.0 
210.162506 32.0 
214.181274 58.0 
214.194061 70.0 
214.238785 26.0 
214.39856 8.0 
215.159912 19.0 
215.179123 50.0 
217.960892 55.0 
221.097961 14.0 
222.10527 59.0 
222.163818 37.0 
222.346039 32.0 
223.095276 138.0 
223.388809 15.0 
224.074432 19.0 
224.159393 26.0 
224.17247 45.0 
225.016434 36.0 
225.036087 40.0 
225.062286 9.0 
225.108124 360.0 
225.134323 15.0 
225.153976 107.0 
225.180176 35.0 
225.29155 8.0 
225.343979 8.0 
225.835739 11.0 
226.104813 81.0 
226.144196 63.0 
226.157318 15.0 
226.170456 25.0 
226.190155 64.0 
226.222977 48.0 
226.262375 85.0 
226.998444 43.0 
227.037918 16.0 
227.057648 96.0 
227.09053 16.0 
227.097107 16.0 
227.110275 27.0 
227.169479 1027.0 
227.25502 25.0 
227.340591 38.0 
227.972916 16.0 
228.15094 62.0 
228.177307 72.0 
228.210281 8.0 
229.207199 12.0 
229.663452 7.0 
230.736465 60.0 
232.197662 490.0 
232.324066 8.0 
232.363998 23.0 
233.196564 66.0 
234.2043 30.0 
234.946457 7.0 
235.194122 9.0 
239.072998 38.0 
239.978348 11.0 
241.075165 30.0 
241.183624 22.0 
242.188065 351.0 
242.228836 51.0 
242.432709 5.0 
242.439514 5.0 
243.072067 32.0 
243.085678 25.0 
243.160568 20.0 
243.18779 91.0 
243.215027 28.0 
243.950851 9.0 
244.189575 18.0 
244.203217 8.0 
245.104553 16.0 
245.145554 27.0 
245.186569 33.0 
246.158203 7.0 
249.112213 10.0 
250.14682 15.0 
250.208969 422.0 
250.298737 9.0 
250.616547 6.0 
251.211243 45.0 
252.104614 20.0 
252.21553 20.0 
253.194046 15.0 
254.188354 13.0 
255.198578 31.0 
255.219498 21.0 
258.093964 13.0 
260.195221 796.0 
260.286774 7.0 
261.146729 34.0 
261.174957 7.0 
261.210236 81.0 
261.231384 28.0 
261.358398 23.0 
262.191833 33.0 
262.205994 23.0 
264.125183 12.0 
265.076782 21.0 
267.113434 45.0 
271.123871 7.0 
271.210144 1758.0 
271.318024 9.0 
272.08078 25.0 
272.18158 71.0 
272.21759 380.0 
272.541809 11.0 
272.808563 10.0 
273.169189 32.0 
273.652832 14.0 
273.6745 7.0 
277.137451 26.0 
277.22467 35.0 
277.668274 10.0 
278.214111 31.0 
279.146942 24.0 
279.168823 17.0 
281.925446 47.0 
282.15271 24.0 
282.416748 20.0 
284.180237 22.0 
285.108276 11.0 
286.52533 22.0 
286.791412 71.0 
286.976257 20.0 
287.323944 20.0 
288.190369 32.0 
288.74649 18.0 
288.828094 13.0 
289.221436 4511.0 
289.273407 7.0 
289.317963 8.0 
289.34024 57.0 
289.45163 35.0 
289.466492 43.0 
290.224548 843.0 
290.276611 14.0 
290.447723 45.0 
290.484924 8.0 
290.529572 17.0 
290.566772 8.0 
290.626312 14.0 
290.670959 21.0 
290.730499 14.0 
291.140076 25.0 
291.199646 13.0 
291.214569 109.0 
291.236908 70.0 
291.281616 8.0 
291.885406 16.0 
292.176361 18.0 
292.191284 14.0 
294.09726 13.0 
294.209564 14.0 
295.206299 47.0 
295.386353 22.0 
295.806671 15.0 
297.039307 13.0 
299.142212 25.0 
300.200195 21.0 
301.100952 9.0 
301.146423 15.0 
301.16156 10.0 
301.517731 20.0 
302.200348 32.0 
304.214813 8.0 
304.481354 9.0 
304.755646 11.0 
304.847107 7.0 
305.296967 10.0 
305.586914 7.0 
305.609802 16.0 
305.663208 25.0 
305.77771 8.0 
305.953308 15.0 
306.235901 13.0 
306.42691 13.0 
306.43457 13.0 
306.587463 11.0 
306.793884 10.0 
306.824463 7.0 
306.862701 15.0 
306.946808 8.0 
306.977417 7.0 
307.130402 21.0 
307.145721 10.0 
307.153351 10.0 
307.229858 11812.0 
307.283447 115.0 
307.306396 11.0 
307.329346 31.0 
307.367615 111.0 
307.444153 44.0 
307.513062 18.0 
307.804016 12.0 
307.842316 12.0 
307.972534 13.0 
308.125793 7.0 
308.240753 1556.0 
308.355713 12.0 
308.616425 22.0 
308.639435 37.0 
308.953949 7.0 
309.245605 208.0 
309.307007 13.0 
309.529724 13.0 
309.660309 28.0 
309.70639 18.0 
310.244415 21.0 
310.405914 12.0 
310.65976 15.0 
311.075409 11.0 
311.21402 28.0 
311.722504 12.0 
311.976929 10.0 
312.015503 7.0 
312.63269 14.0 
312.694458 10.0 
312.887482 6.0 
312.933807 14.0 
313.389587 8.0 
313.459167 7.0 
313.606018 15.0 
313.75293 9.0 
314.704773 21.0 
315.146362 34.0 
315.836456 9.0 
317.92688 9.0 
319.235931 17.0 
319.727539 8.0 
320.907318 7.0 
321.228027 7.0 
321.815125 6.0 
321.979584 7.0 
322.198975 23.0 
324.027344 6.0 
324.876617 7.0 
326.034332 7.0 
326.184113 19.0 
327.123016 23.0 
327.233582 9.0 
328.174011 27.0 
329.2742 19.0 
335.226257 21.0 
336.826752 14.0 
338.182098 7.0 
339.266785 52.0 
341.231598 19.0 
343.242523 6.0 
344.254272 18.0 
345.178284 16.0 
345.259399 24.0 
347.14386 23.0 
347.168274 24.0 
348.177612 45.0 
349.172119 16.0 
349.196594 23.0 
351.239014 13.0 
353.074066 7.0 
354.667236 30.0 
355.25119 14.0 
359.244812 12.0 
362.26297 11.0 
362.287903 25.0 
362.329437 20.0 
362.911377 15.0 
363.119293 29.0 
363.144257 32.0 
364.143219 18.0 
365.110229 27.0 
365.185303 372.0 
365.22702 24.0 
365.285431 17.0 
366.178711 53.0 
367.165131 23.0 
367.190247 22.0 
371.182922 29.0 
372.209717 14.0 
372.251831 47.0 
374.107117 19.0 
375.298676 22.0 
377.305695 32.0 
377.874023 15.0 
378.137146 34.0 
379.216034 30.0 
379.233032 39.0 
379.250061 41.0 
380.219818 26.0 
381.114166 46.0 
381.148285 42.0 
381.165314 24.0 
381.216461 76.0 
382.163147 91.0 
383.162323 10.0 
385.147369 23.0 
387.094635 12.0 
387.154755 259.0 
387.257843 23.0 
388.143188 82.0 
388.186188 40.0 
388.513123 25.0 
389.107086 25.0 
389.210419 35.0 
390.046265 9.0 
390.175598 23.0 
390.192871 8.0 
390.244598 26.0 
390.270477 206.0 
391.21109 26.0 
391.271515 58.0 
391.349243 15.0 
391.513336 6.0 
392.118256 6.0 
392.126892 6.0 
392.221985 23.0 
392.256561 19.0 
392.282501 16.0 
392.299805 13.0 
392.377625 7.0 
394.741913 15.0 
395.149689 8.0 
395.201752 17.0 
395.236481 13.0 
396.739349 17.0 
397.182922 27.0 
397.705109 19.0 
398.672058 20.0 
398.70694 25.0 
400.190186 33.0 
400.21637 25.0 
400.242584 87.0 
401.24762 18.0 
402.262634 10.0 
403.682312 7.0 
403.717377 7.0 
404.270172 14.0 
405.20993 15.0 
405.227509 7.0 
405.517517 13.0 
406.203552 11.0 
407.145508 29.0 
407.180756 8.0 
408.212067 67.0 
408.273804 4219.0 
408.335541 43.0 
408.397308 26.0 
408.423767 17.0 
408.564941 65.0 
408.60025 12.0 
409.174011 24.0 
409.244659 244.0 
409.279999 834.0 
409.332977 6.0 
409.421326 7.0 
409.483154 26.0 
410.172516 9.0 
410.181366 9.0 
410.252106 103.0 
410.278625 120.0 
411.269562 7.0 
411.278412 7.0 
412.199677 32.0 
412.660706 25.0 
412.891266 9.0 
413.725555 19.0 
413.93869 7.0 
414.267365 40.0 
414.436218 21.0 
414.667328 14.0 
415.147522 31.0 
415.156403 31.0 
416.028564 9.0 
418.034424 8.0 
418.204041 18.0 
418.257599 410.0 
418.346893 12.0 
419.249207 80.0 
419.26709 93.0 
419.276031 93.0 
420.134583 23.0 
421.244904 33.0 
425.214508 10.0 
427.143097 34.0 
428.145172 9.0 
429.184601 6.0 
429.193634 6.0 
431.013428 11.0 
431.21283 79.0 
434.00946 17.0 
435.201691 6.0 
435.210785 6.0 
435.78476 7.0 
436.276978 260.0 
437.098022 8.0 
437.234955 17.0 
437.24408 17.0 
437.262329 33.0 
437.280579 38.0 
438.184814 24.0 
438.203094 10.0 
440.243347 32.0 
441.214813 17.0 
448.276093 41.0 
449.173126 18.0 
449.200867 22.0 
450.228485 12.0 
450.256256 65.0 
450.284027 34.0 
450.617615 25.0 
451.062531 13.0 
451.201599 28.0 
451.220154 13.0 
452.250061 26.0 
452.277924 22.0 
454.322723 26.0 
459.146179 29.0 
460.222534 10.0 
464.220825 14.0 
464.258453 19.0 
465.218353 17.0 
465.3125 38.0 
468.208008 13.0 
472.753143 26.0 
476.185944 18.0 
477.196259 21.0 
477.358398 43.0 
477.520538 33.0 
479.134094 16.0 
479.162781 14.0 
479.277466 19.0 
481.24826 14.0 
482.177643 10.0 
482.292694 18.0 
482.311859 14.0 
483.299866 12.0 
483.328674 8.0 
485.326996 18.0 
487.329468 9.0 
489.13327 7.0 
489.287781 17.0 
494.273468 54.0 
495.118225 10.0 
495.390259 10.0 
496.255432 22.0 
498.221802 32.0 
502.254272 31.0 
503.203735 21.0 
504.310944 11.0 
505.281982 18.0 
505.291779 18.0 
505.340851 18.0 
506.008392 28.0 
506.352173 13.0 
507.266144 32.0 
508.249847 24.0 
510.299011 57.0 
510.48642 28.0 
511.344879 11.0 
512.342407 7.0 
513.281555 14.0 
516.024902 9.0 
520.347717 7.0 
523.629089 12.0 
523.649109 20.0 
525.068604 13.0 
526.219604 7.0 
530.253052 24.0 
530.333496 83.0 
531.319153 31.0 
531.349365 54.0 
534.150574 17.0 
534.97821 8.0 
535.139771 8.0 
536.726501 7.0 
537.384033 9.0 
537.444763 10.0 
538.264893 32.0 
538.356018 293.0 
539.217346 14.0 
539.349121 78.0 
540.302551 22.0 
541.490479 20.0 
544.206177 12.0 
544.420105 10.0 
545.194458 11.0 
545.225037 19.0 
546.5 8.0 
547.194214 42.0 
547.214661 29.0 
547.255493 16.0 
547.337158 13.0 
547.510803 13.0 
547.56189 28.0 
547.602722 8.0 
548.185242 31.0 
548.236328 42.0 
548.266968 40.0 
548.328308 2396.0 
548.512268 24.0 
548.553223 11.0 
548.686157 8.0 
548.75769 40.0 
548.788391 8.0 
548.819092 44.0 
549.146423 33.0 
549.248718 49.0 
549.269165 39.0 
549.330566 931.0 
549.412415 40.0 
549.555725 35.0 
549.709229 12.0 
549.750122 12.0 
550.108459 62.0 
550.221069 32.0 
550.241577 37.0 
550.30304 100.0 
550.33374 231.0 
550.354248 121.0 
550.384949 14.0 
551.173828 45.0 
551.245544 78.0 
551.28656 18.0 
551.307068 22.0 
551.348083 25.0 
551.563354 13.0 
551.912048 12.0 
552.301758 32.0 
552.332581 20.0 
553.564453 12.0 
553.944519 18.0 
554.067871 20.0 
554.59198 54.0 
555.013611 22.0 
555.137024 14.0 
555.322205 17.0 
555.97052 20.0 
556.299927 34.0 
556.423523 7.0 
556.444092 12.0 
556.753113 8.0 
557.299133 8.0 
557.680542 53.0 
558.959656 10.0 
560.126526 12.0 
560.612183 8.0 
560.643188 20.0 
560.767273 47.0 
560.829285 14.0 
561.263611 30.0 
561.304993 50.0 
561.335999 19.0 
562.567505 12.0 
562.660706 18.0 
563.12677 13.0 
563.302917 11.0 
563.375427 17.0 
563.634521 20.0 
563.655273 13.0 
563.789978 20.0 
564.215027 7.0 
564.474304 7.0 
564.567688 19.0 
564.609192 13.0 
564.671387 15.0 
564.81665 8.0 
565.179871 97.0 
565.210999 215.0 
565.283569 928.0 
565.345886 128.0 
565.366638 55.0 
565.532715 12.0 
565.563904 83.0 
565.584656 29.0 
565.761169 160.0 
565.781921 67.0 
565.823486 31.0 
565.854614 14.0 
565.885803 8.0 
565.927307 16.0 
565.968872 8.0 
566.051941 8.0 
566.135071 12.0 
566.228577 273.0 
566.342834 21312.0 
566.405151 282.0 
566.446655 211.0 
566.498657 119.0 
566.519409 25.0 
566.540222 76.0 
566.602539 119.0 
566.633728 59.0 
566.664917 119.0 
566.685669 67.0 
566.727234 82.0 
566.758423 50.0 
566.831177 74.0 
566.914368 8.0 
566.966309 25.0 
567.028687 12.0 
567.080688 50.0 
567.13269 77.0 
567.153442 156.0 
567.205444 152.0 
567.257446 477.0 
567.278198 494.0 
567.340637 5552.0 
567.423828 45.0 
567.486206 27.0 
567.538208 26.0 
567.569397 15.0 
567.600525 41.0 
567.631775 125.0 
567.694153 13.0 
567.756592 127.0 
567.829407 36.0 
567.891846 51.0 
568.068726 62.0 
568.120728 11.0 
568.141541 55.0 
568.203979 76.0 
568.245605 379.0 
568.287231 591.0 
568.318481 886.0 
568.34967 1183.0 
568.401733 277.0 
568.422546 76.0 
568.443359 16.0 
568.505798 12.0 
568.578674 107.0 
568.672363 36.0 
568.71405 24.0 
568.786865 63.0 
568.807678 41.0 
568.828491 51.0 
568.870117 7.0 
568.932617 20.0 
568.974243 8.0 
569.005493 7.0 
569.026367 18.0 
569.067993 22.0 
569.120056 11.0 
569.192993 201.0 
569.234619 496.0 
569.286743 302.0 
569.328369 220.0 
569.349243 263.0 
569.370056 269.0 
569.401306 51.0 
569.45343 60.0 
569.495056 16.0 
569.588867 10.0 
569.60968 14.0 
569.661804 29.0 
569.693054 11.0 
569.745178 10.0 
569.776428 10.0 
569.818115 91.0 
570.078613 25.0 
570.15155 44.0 
570.182861 20.0 
570.214111 69.0 
570.234985 256.0 
570.266235 317.0 
570.318359 358.0 
570.339233 301.0 
570.360107 345.0 
570.422668 8.0 
570.464355 33.0 
570.568604 19.0 
570.589478 12.0 
570.620789 44.0 
570.693787 15.0 
570.829346 54.0 
571.110962 7.0 
571.236145 58.0 
571.309204 30.0 
571.371826 28.0 
571.455322 16.0 
571.831116 13.0 
571.987671 8.0 
572.38446 9.0 
572.405334 18.0 
572.457581 60.0 
572.593384 9.0 
572.676941 20.0 
572.71875 8.0 
573.345764 11.0 
574.077759 16.0 
574.632202 11.0 
575.009033 8.0 
575.197449 11.0 
575.396423 7.0 
576.402161 17.0 
577.041626 15.0 
577.597595 23.0 
578.46875 19.0 
578.500244 12.0 
579.014893 7.0 
579.340515 10.0 
579.876587 10.0 
580.654724 16.0 
581.138733 16.0 
581.286072 8.0 
582.318054 10.0 
583.498474 21.0 
585.408752 14.0 
585.609436 6.0 
585.725647 6.0 
585.894653 12.0 
587.501953 8.0 
587.861816 7.0 
588.549988 28.0 
589.439941 7.0 
592.549438 7.0 
595.08136 5.0 
595.09198 5.0 
595.560669 14.0 
599.530457 6.0 
604.72583 14.0 
616.418945 13.0 
617.373108 10.0 
617.633484 9.0 
620.707642 7.0 
633.201538 12.0 
636.61145 6.0 
639.412292 25.0 
646.308044 11.0 
655.463074 21.0 
668.875854 23.0 
672.222046 20.0 
674.952576 9.0 
690.224365 65.0 
712.374268 21.0 
719.148254 6.0 
723.016785 8.0 
723.028564 8.0 
727.26062 51.0 
729.876526 7.0 
743.96698 30.0 
771.314819 22.0 
776.488403 16.0 
781.337524 19.0 
807.285034 23.0 
829.338623 22.0 
833.316101 21.0 
873.395142 7.0 
926.733765 22.0 
955.310974 19.0 
963.085205 34.0 
976.312439 19.0 
976.326111 19.0 
984.41803 6.0 
986.747925 18.0 
992.185852 12.0 
1011.919434 7.0 
1014.448486 12.0 
1035.314087 9.0 
1038.462891 8.0 
1049.931763 14.0 
1063.583862 23.0 
1076.407227 16.0 
1076.607788 15.0 
1078.499268 15.0 
1094.341797 7.0 
1094.515015 23.0 
1096.43689 41.0 
1096.480225 27.0 
1097.420044 16.0 
1098.461426 10.0 
1111.274658 25.0 
1121.23645 11.0 
1152.248047 13.0 
1183.127075 7.0 
1194.551636 12.0 
1229.721069 16.0 
1240.568359 47.0 
1301.449219 39.0 
1330.44519 9.0 
1373.818359 19.0 
1390.177124 7.0 
1491.45874 21.0 
1683.000488 26.0 
1700.99353 15.0 
1813.748535 12.0 
1813.76709 12.0 
1824.454712 28.0 
1856.254395 12.0 
1976.387329 26.0 
2080.367432 7.0 
2081.940918 103.0 
2125.570801 16.0 
2312.56543 10.0 
2355.336426 8.0 
2388.119629 50.0 
2446.52124 7.0 
2566.08252 76.0 
2599.049561 77.0 
2877.780273 24.0 
2926.79248 27.0 
END IONS

