BEGIN IONS
PEPMASS=1874.53
CHARGE=1+
COMPOUNDNAME=Teichomycin
LIBRARYQUALITY=3
SMILES=N/A
INCHIKEY=BJNLLBUOHPVGFT-QRZIFLFXSA-N
INCHI=InChI=1S/C88H97Cl2N9O33/c1-3-4-5-6-7-8-9-10-60(108)94-68-74(113)71(110)58(32-101)129-87(68)132-78-55-26-40-27-56(78)126-52-18-14-38(24-47(52)90)77(131-86-67(92-34(2)103)73(112)70(109)57(31-100)128-86)69-84(121)98-66(85(122)123)45-29-42(105)30-54(127-88-76(115)75(114)72(111)59(33-102)130-88)61(45)44-23-37(13-15-49(44)106)63(81(118)99-69)96-83(120)65(40)97-82(119)64-39-21-41(104)28-43(22-39)124-53-25-36(12-16-50(53)107)62(91)80(117)93-48(79(116)95-64)20-35-11-17-51(125-55)46(89)19-35/h11-19,21-30,48,57-59,62-77,86-88,100-102,104-107,109-115H,3-10,20,31-33,91H2,1-2H3,(H,92,103)(H,93,117)(H,94,108)(H,95,116)(H,96,120)(H,97,119)(H,98,121)(H,99,118)(H,122,123)/t48-,57-,58-,59-,62-,63-,64+,65-,66-,67-,68-,69+,70-,71-,72-,73-,74-,75+,76+,77-,86+,87+,88+/m1/s1
MSLEVEL=2
SOURCE_INSTRUMENT=N/A-ESI-QFT
FILENAME=library_mgf.mgf
SEQ=*..*
IONMODE=negative
ORGANISM=MONA
NAME=Teichomycin [M-H]-
PI=MoNA
DATACOLLECTOR=MoNA:VF-NPL-QEHF027950
PUBMED=N/A
SUBMITUSER=mwang87
TAGS=
SPECTRUMID=CCMSLIB00004721531
SCANS=27950
129.750595 3.526115 
133.765976 3.393065 
134.02359 7.848777 
135.119095 2.996425 
135.212234 3.557362 
135.686722 3.193973 
136.039078 20.154869 
138.980087 2.984074 
139.69873 3.618908 
142.852478 3.634238 
147.755112 3.061186 
148.05188 4.124655 
151.125687 3.15597 
152.3591 3.114852 
155.802399 3.667174 
156.911591 3.55058 
157.714279 3.146577 
157.858185 3.233898 
160.283722 2.867065 
164.0336 3.366922 
167.423935 3.074971 
169.064804 3.489811 
171.335098 3.058729 
173.863571 3.426931 
176.451981 3.193901 
177.567032 3.018542 
183.011017 83.392731 
184.427612 2.876616 
184.449387 3.163937 
191.686554 3.997212 
193.657944 2.903989 
197.027176 10.305433 
197.266464 3.540467 
200.004242 3.206879 
203.492981 2.961682 
212.047531 4.29334 
213.054855 100.0 
217.566864 3.870802 
218.107681 3.148593 
222.849716 3.389102 
223.026733 4.220629 
225.055054 19.653753 
236.539444 3.377718 
237.006836 4.925407 
238.050491 16.349842 
240.066193 42.873653 
243.775574 3.191294 
244.787888 3.327487 
250.050873 3.282112 
252.066605 16.53615 
256.062561 3.785473 
256.913544 3.648787 
263.059082 4.606683 
266.045502 26.255472 
267.053406 31.039188 
268.061127 34.045944 
276.026825 3.923147 
277.061035 4.0778 
277.987396 3.525802 
280.061066 8.862552 
281.690033 3.611175 
296.054993 3.431473 
304.200104 31.582911 
304.222778 43.628834 
311.168182 75.624924 
321.050293 3.377157 
321.142822 3.866508 
323.045746 3.801617 
323.822327 3.672683 
325.183594 95.479355 
327.199768 3.651772 
333.927155 3.399718 
339.198669 16.489655 
353.980988 3.615023 
356.108093 3.73435 
368.577515 3.719756 
377.980133 7.839804 
381.028931 3.24515 
382.840576 3.260753 
384.648041 3.592047 
387.219666 3.408238 
388.739197 3.705717 
394.207367 3.649817 
402.928802 4.635683 
414.294556 3.173317 
432.333405 3.785281 
433.794464 3.383084 
442.256134 4.014174 
463.031036 3.437482 
469.832855 4.242623 
483.031281 3.312196 
497.10611 4.301157 
507.043793 3.898778 
507.111145 3.872093 
524.135315 2.994701 
531.766113 3.422593 
554.964233 3.43097 
555.101318 3.646893 
587.220703 3.674372 
596.03772 3.13791 
602.535217 3.695566 
619.293457 3.908255 
622.356384 3.801115 
663.270203 3.640906 
667.120117 6.914461 
696.12616 4.368683 
713.617676 14.310545 
713.687439 9.895306 
713.73877 4.618844 
713.801392 6.009607 
713.927917 7.020283 
714.013489 40.241348 
727.131897 3.342806 
727.437622 3.342039 
730.131836 3.544075 
731.756592 3.673156 
755.202759 3.457397 
767.16272 3.621552 
768.769592 3.765849 
785.356323 4.01141 
814.120605 4.466114 
838.195679 3.389532 
942.538879 3.579361 
947.166626 4.124038 
980.199524 3.379674 
999.164673 4.332058 
1013.779358 3.409923 
1031.384766 3.542594 
1057.606323 3.946883 
1095.832153 4.254219 
1122.256226 4.424857 
1133.904053 3.87439 
1156.604126 3.513445 
1176.062012 3.783708 
1216.326904 3.501826 
1230.659912 3.712701 
1259.991577 3.785103 
1370.303955 4.041787 
1391.430542 3.602797 
1411.998779 3.513731 
1431.364624 4.189924 
1485.729736 3.933478 
1523.518188 4.019429 
1583.723633 3.477175 
1782.034912 3.61106 
1801.317383 3.916597 
1803.665771 3.575522 
1805.688843 3.719832 
1818.662964 3.575561 
1901.938721 3.499261 
END IONS

