BEGIN IONS
PEPMASS=176.103
CHARGE=1+
COMPOUNDNAME=Massbank:PR100448 L-Citrulline|Cit|Orn(carbamoyl)|N5-Carbamoyl-L-ornithine|delta-Ureidonorvaline|L-2-Amino-5-ureidovaleric acid|(S)-2-Amino-5-ureidopentanoic acid|Sitrulline
LIBRARYQUALITY=3
SMILES=NC(=O)NCCC[C@H](N)C(O)=O
INCHIKEY=RHGKLRLOHDJJDR-BYPYZUCNSA-N
INCHI=1S/C6H13N3O3/c7-4(5(10)11)2-1-3-9-6(8)12/h4H,1-3,7H2,(H,10,11)(H3,8,9,12)/t4-/m0/s1
MSLEVEL=2
SOURCE_INSTRUMENT=ESI-LC-ESI-QTOF
FILENAME=Massbank_ESI_positive_8_1_2014_peaks.mgf
SEQ=*..*
IONMODE=Positive
ORGANISM=MASSBANK
NAME=Massbank:PR100448 L-Citrulline|Cit|Orn(carbamoyl)|N5-Carbamoyl-L-ornithine|delta-Ureidonorvaline|L-2-Amino-5-ureidovaleric acid|(S)-2-Amino-5-ureidopentanoic acid|Sitrulline [M+H]+
PI=Putative Massbank Match
DATACOLLECTOR=Massbank
PUBMED=N/A
SUBMITUSER=mwang87
TAGS=
SPECTRUMID=CCMSLIB00000223270
SCANS=11402
70.0655 1116.0 
113.0705 696.1 
114.0554 112.8 
115.0866 154.3 
116.0698 91.08 
159.0751 840.8 
176.1035 84.13 
END IONS

