BEGIN IONS
PEPMASS=403.291
CHARGE=1+
COMPOUNDNAME=ACTINONIN
LIBRARYQUALITY=3
SMILES=N/A
INCHIKEY=XJLATMLVMSFZBN-VYDXJSESSA-N
INCHI=InChI=1S/C19H35N3O5/c1-4-5-6-8-14(11-16(24)21-27)18(25)20-17(13(2)3)19(26)22-10-7-9-15(22)12-23/h13-15,17,23,27H,4-12H2,1-3H3,(H,20,25)(H,21,24)/t14-,15+,17+/m1/s1
MSLEVEL=2
SOURCE_INSTRUMENT=N/A-ESI-QFT
FILENAME=library_mgf.mgf
SEQ=*..*
IONMODE=positive
ORGANISM=MONA
NAME=ACTINONIN [M+NH4]+
PI=MoNA
DATACOLLECTOR=MoNA:VF-NPL-QEHF027317
PUBMED=N/A
SUBMITUSER=mwang87
TAGS=
SPECTRUMID=CCMSLIB00004720898
SCANS=27317
50.416988 0.01159 
50.500896 0.011234 
50.668152 0.014957 
51.054855 0.051618 
51.140278 0.043879 
51.164417 0.022488 
51.712669 0.04675 
52.078884 0.046976 
52.097969 0.028748 
52.230061 0.039894 
52.257019 0.013779 
52.259647 0.04674 
52.919212 0.02084 
53.765942 0.054207 
55.054482 5.621432 
55.794403 0.024599 
55.934677 0.013531 
56.049728 4.417223 
56.179096 0.018336 
56.456249 0.024494 
56.820141 0.024428 
56.965023 9.34146 
56.969406 0.051414 
57.057465 0.085685 
57.070087 3.452755 
57.220169 0.013002 
57.819019 0.054017 
58.124153 0.052402 
58.257511 0.058114 
58.563591 0.023459 
58.622684 0.025332 
58.795742 0.011517 
60.300312 0.024439 
60.380836 0.025004 
60.613003 0.012825 
60.826851 0.019369 
61.010818 0.133955 
61.150894 0.019806 
61.394493 0.02344 
62.018631 0.017392 
62.480572 0.041193 
62.50845 0.042255 
62.510578 0.021237 
62.883698 0.021053 
63.412926 0.043888 
63.437889 0.045334 
63.563026 0.013625 
63.777153 0.012537 
64.220596 0.047964 
64.268761 0.021091 
64.325485 0.014391 
64.377556 0.046899 
65.037628 0.041251 
65.347984 0.020097 
66.040108 0.049797 
66.167969 0.020527 
66.184174 0.052479 
66.309067 0.054849 
67.054268 3.7794 
67.297958 0.044137 
67.604614 0.023469 
67.999992 0.045203 
68.980431 0.045157 
69.033516 0.056567 
69.069946 0.382726 
69.316689 0.061128 
69.456711 0.020088 
69.499702 0.073695 
69.544106 0.023404 
69.67849 0.017867 
69.997841 0.020639 
70.065132 0.239822 
70.495667 0.021591 
70.597733 0.030761 
70.980392 0.041486 
71.085518 0.953202 
71.306458 0.049181 
71.761093 0.015915 
71.936333 0.060477 
72.059212 0.05614 
72.065208 0.059565 
72.069496 0.086146 
72.075569 0.312324 
72.080727 44.334023 
72.086708 0.127468 
72.088074 0.220597 
72.092865 0.058767 
72.097862 0.083398 
72.282143 0.036008 
72.350807 0.035596 
72.37899 0.024852 
72.858078 0.023156 
73.028358 0.067056 
73.371803 0.025008 
73.874954 0.022758 
74.975388 0.032929 
76.314804 0.02713 
76.956047 0.023529 
77.218002 0.021614 
78.411758 0.051368 
78.495354 0.028952 
78.625359 0.012549 
78.974258 0.02344 
81.069832 0.305816 
82.065025 0.792473 
82.900169 0.013542 
83.049088 0.204481 
83.085411 0.302635 
83.325584 0.011543 
84.074669 0.061715 
84.080727 27.72991 
84.090088 0.050466 
84.20359 0.012383 
85.039665 0.125936 
85.06472 6.893017 
85.101074 0.400404 
85.474335 0.025038 
86.096497 0.015314 
87.043999 1.548383 
88.09993 0.022883 
88.802895 0.012721 
89.059608 0.884054 
89.517998 0.019256 
89.903549 0.056618 
91.054085 0.014816 
91.184731 0.065089 
91.533173 0.013713 
93.09359 0.023019 
93.74427 0.022237 
93.885704 0.047195 
94.04863 0.011279 
94.138748 0.012337 
95.085442 0.364337 
95.133102 0.056833 
95.624474 0.053546 
95.885773 0.031963 
97.101143 0.633739 
97.191833 0.020456 
98.673798 0.060396 
100.075607 1.687328 
100.465057 0.059819 
101.249382 0.028044 
101.347336 0.02335 
102.091301 100.0 
102.10836 0.055626 
102.948044 0.024091 
103.025772 0.059549 
103.058044 0.042095 
103.260719 0.097548 
103.355812 0.023034 
103.619621 0.049604 
103.623718 0.028756 
103.996239 0.016792 
104.85498 0.024782 
107.08548 0.039247 
108.066399 0.02262 
109.101135 0.068278 
110.060112 0.027577 
110.575829 0.013151 
111.044037 0.247999 
111.652657 0.024666 
112.0756 19.767658 
112.085564 0.068815 
112.369896 0.059167 
113.096146 0.029625 
114.305412 0.01274 
114.782578 0.050934 
114.947914 0.012788 
116.223633 0.029425 
116.289528 0.027945 
118.583115 0.051863 
119.794853 0.060692 
120.848427 0.022322 
121.101601 0.016104 
122.634811 0.025893 
123.876129 0.057907 
124.895416 0.025114 
125.09623 0.039652 
125.468399 0.025633 
126.022499 0.046169 
128.070557 5.965281 
128.872574 0.057413 
129.018311 0.022398 
129.209641 0.014417 
130.979355 0.012749 
131.037933 0.044442 
132.95816 0.048359 
133.321686 0.025839 
133.588303 0.058339 
136.007095 0.024097 
136.429016 0.027221 
138.022583 2.529148 
138.490112 0.055377 
140.038498 0.111254 
140.10701 0.938227 
140.798782 0.051191 
140.89682 0.019976 
142.898666 0.050429 
145.191711 0.013861 
146.299637 0.025367 
146.974396 0.245537 
147.73027 0.060114 
148.882324 0.012783 
149.645782 0.027972 
150.968796 0.15689 
152.192337 0.027824 
152.951401 0.074163 
153.211761 0.025163 
154.017426 2.022619 
154.409439 0.030715 
154.947144 0.081472 
156.033005 9.720311 
156.138748 0.076653 
156.988052 0.058871 
157.018036 0.031735 
157.6698 0.016561 
158.048706 5.149189 
160.329071 0.024099 
160.98967 0.122062 
163.110626 0.045788 
163.53183 0.015369 
163.976486 0.020747 
164.861038 0.031085 
165.066116 0.024895 
166.017517 0.159755 
166.122635 0.252757 
168.033188 1.875652 
170.048935 0.061015 
170.117554 0.40169 
170.288193 0.012695 
172.028091 1.410981 
173.37294 0.031532 
174.043671 5.445106 
175.027802 0.168625 
176.059235 3.238384 
178.158371 0.050339 
179.954056 0.014125 
180.070251 0.056796 
181.028336 1.026923 
182.048401 0.055533 
183.043777 0.045727 
183.1492 0.188797 
184.028015 2.416546 
184.064499 0.088774 
184.133255 0.545559 
184.607361 0.029016 
185.129364 0.027822 
186.043793 1.995409 
186.080154 0.209087 
186.112549 0.382098 
186.477173 0.01309 
187.21225 0.017201 
187.608978 0.01404 
188.058487 0.075706 
190.153915 0.025485 
191.105896 0.302878 
192.054321 0.178023 
192.317703 0.028649 
192.961639 0.07026 
193.036972 0.016627 
194.069794 0.087997 
197.096313 0.041925 
198.080078 2.636184 
198.854614 0.029982 
199.039032 1.400716 
200.112045 0.235524 
201.054276 0.38095 
201.159897 0.190066 
202.038544 1.919052 
202.075638 0.030107 
203.066437 0.063334 
203.60376 0.031345 
204.010986 0.028644 
204.054214 0.540235 
205.075211 0.027353 
208.064926 0.047107 
210.079895 0.917418 
210.733978 0.022386 
210.874893 0.022791 
210.971695 0.026631 
212.095963 0.214993 
212.609406 2.06471 
213.812988 0.053522 
213.818008 0.061386 
213.83371 2.448507 
214.074738 0.047907 
215.106827 0.195172 
216.090393 5.261906 
216.864395 0.018256 
217.049332 0.079836 
217.60704 0.016294 
219.174454 0.285617 
220.903198 0.015741 
221.165619 0.090518 
221.6147 2.681485 
222.080078 0.360652 
222.327713 0.055459 
222.898529 0.289106 
223.075241 0.224454 
223.576813 0.01273 
224.096619 0.126956 
224.164398 0.981155 
225.091049 0.607043 
226.074921 2.323561 
226.518051 0.058266 
228.090439 2.554116 
228.746353 0.048423 
229.895309 0.048224 
230.106522 1.216341 
232.859772 0.04465 
233.052383 0.028198 
233.115814 0.015269 
233.891174 0.15479 
234.101196 1.010434 
235.060516 0.289892 
237.089813 0.018464 
237.888168 0.015528 
238.913818 0.059577 
239.175003 2.485691 
240.090302 6.230321 
240.126694 0.13477 
240.865051 0.357152 
240.909073 0.515932 
241.0858 4.115494 
241.880936 0.017674 
242.10585 3.573331 
243.101517 2.196705 
243.126083 0.014267 
244.085297 1.373395 
246.101379 0.095336 
247.906815 0.024749 
249.128006 0.049602 
251.902542 0.702457 
252.127029 1.320462 
253.084824 0.102051 
254.142929 0.032407 
254.412598 0.040599 
255.101852 0.149506 
256.121857 0.01566 
256.880157 0.141877 
257.117188 0.391955 
258.100739 4.011455 
258.137848 0.143381 
258.481323 0.068624 
258.875305 1.540191 
259.096222 15.060995 
260.052277 0.029918 
260.116516 2.507675 
260.850891 0.047682 
261.112518 0.308062 
261.127045 0.024365 
261.851807 0.01372 
264.90918 0.154626 
266.744476 0.026149 
267.10144 0.449086 
267.137787 0.772743 
267.170563 0.140435 
268.122559 0.081035 
268.87973 0.017153 
270.136993 4.487672 
270.875244 0.244146 
271.095764 0.053491 
272.152954 0.185012 
275.496826 0.026043 
277.106781 12.190529 
277.121277 0.60871 
279.137482 2.614523 
279.897034 0.016947 
280.796753 0.054732 
280.967682 0.058282 
281.153687 0.051323 
282.138641 0.071861 
282.875275 0.327913 
282.919464 0.046489 
283.09668 0.848165 
283.262756 10.058605 
283.892181 0.928096 
284.153503 0.099491 
284.266388 1.776704 
285.111145 0.091758 
285.148285 0.370831 
285.180756 0.288467 
285.26944 0.017799 
288.147827 0.46545 
292.22699 0.054211 
293.11853 0.049558 
295.13269 0.611349 
295.962158 0.017735 
297.147919 3.887701 
298.132935 0.146921 
298.89212 0.019418 
300.88562 0.558429 
301.106873 1.333927 
301.903961 0.021478 
307.133392 0.109572 
307.237701 0.053585 
310.143677 0.147908 
310.91571 0.208152 
311.127808 0.32279 
312.297424 0.099181 
313.14325 2.127139 
315.159027 0.856746 
321.184814 1.354052 
325.142365 0.123677 
328.52005 0.028992 
331.153809 1.910888 
333.184937 2.153685 
333.29718 0.03526 
338.452209 0.061159 
339.195374 0.408521 
341.138702 0.954548 
342.342773 0.033682 
350.222107 0.026562 
350.243103 3.329581 
351.195007 6.074759 
359.133026 0.025381 
359.150452 0.034007 
361.133087 0.040971 
362.212189 0.049439 
363.196014 1.764581 
369.205994 0.523071 
374.503113 0.027961 
376.190247 2.142922 
380.221191 0.11111 
381.20575 3.545127 
383.072266 0.02845 
392.531494 0.033233 
394.201416 1.090202 
401.286255 0.045184 
402.293274 0.050548 
403.964142 0.310082 
404.961395 0.294148 
405.209198 0.025514 
405.260742 0.706518 
406.20108 0.192512 
410.570038 0.03975 
413.404236 0.014189 
421.503052 0.028238 
422.689087 0.033924 
424.212646 0.329351 
END IONS

