BEGIN IONS
PEPMASS=271.061
CHARGE=1+
COMPOUNDNAME=naringenin
LIBRARYQUALITY=3
SMILES=N/A
INCHIKEY=FTVWIRXFELQLPI-UHFFFAOYSA-N
INCHI=InChI=1S/C15H12O5/c16-9-3-1-8(2-4-9)13-7-12(19)15-11(18)5-10(17)6-14(15)20-13/h1-6,13,16-18H,7H2
MSLEVEL=2
SOURCE_INSTRUMENT=N/A-ESI-QFT
FILENAME=library_mgf.mgf
SEQ=*..*
IONMODE=negative
ORGANISM=MONA
NAME=naringenin [M-H]-
PI=MoNA
DATACOLLECTOR=MoNA:VF-NPL-QEHF013128
PUBMED=N/A
SUBMITUSER=mwang87
TAGS=
SPECTRUMID=CCMSLIB00004704191
SCANS=13128
50.408661 0.026874 
50.805187 0.023311 
50.887714 0.030365 
51.12661 0.03277 
51.331242 0.025988 
51.334755 0.030254 
51.788807 0.022622 
51.88409 0.025624 
52.456509 0.027461 
53.630795 0.025577 
54.708248 0.036326 
55.078564 0.025865 
55.477158 0.025881 
55.567101 0.030436 
55.903767 0.02285 
55.959042 0.027161 
56.176476 0.023935 
57.033237 0.02408 
57.243805 0.024968 
57.458546 0.027506 
57.633671 0.029082 
57.681431 0.032124 
57.886806 0.026393 
57.974369 0.167226 
58.300404 0.02162 
58.744308 0.027227 
58.842484 0.025581 
58.976624 0.027468 
58.994762 0.02584 
59.01252 6.382017 
59.391968 0.021765 
60.173965 0.029391 
61.213753 0.022714 
61.987038 5.549002 
62.178791 0.027627 
62.636021 0.029859 
63.022701 14.527552 
63.805431 0.023067 
63.943226 0.030889 
63.961159 1.918618 
63.96283 0.023383 
63.968925 0.035364 
64.026047 0.289926 
64.132942 0.025921 
64.600296 0.028506 
64.71228 0.027872 
64.951187 0.217068 
65.001976 27.356449 
65.709808 0.028971 
65.890862 0.022565 
66.005333 0.606223 
66.538811 0.023681 
66.556091 0.028315 
66.614075 0.025975 
67.310158 0.026649 
67.810394 0.031161 
68.346031 0.033872 
68.430359 0.02708 
68.639046 0.02404 
68.996849 0.668451 
69.276733 0.023483 
69.808594 0.022444 
70.860558 0.023118 
72.553314 0.025722 
72.925941 0.030802 
72.926682 0.02575 
72.927589 0.032489 
73.222145 0.027254 
74.136253 0.030456 
74.989723 0.125615 
75.178375 0.020224 
75.336052 0.028536 
75.838875 0.032012 
76.951187 0.175401 
78.300354 0.027482 
78.480766 0.033504 
78.769997 0.029341 
78.909027 0.02994 
78.957619 0.075334 
78.967155 0.029137 
78.984634 0.818845 
79.059021 0.023666 
79.694557 0.027201 
79.741653 0.02647 
79.956062 19.34218 
80.540924 0.026622 
80.961555 0.028744 
80.963898 2.873995 
81.033188 0.025839 
81.951866 0.399547 
82.107857 0.023996 
82.327225 0.029911 
82.693863 0.027612 
82.855957 0.028445 
83.012558 12.36916 
83.854065 0.026238 
84.016006 0.09734 
84.137604 0.027156 
84.520775 0.026502 
84.780289 0.023927 
85.969002 0.031284 
86.089424 0.03082 
86.317726 0.022056 
86.945824 0.021093 
87.804726 0.025871 
88.026199 0.027182 
88.344048 0.028175 
88.505287 0.029085 
88.908569 0.026051 
90.115685 0.025151 
90.18055 0.029297 
90.257393 0.034883 
90.931953 0.031525 
91.018356 0.023514 
91.4562 0.02847 
92.143044 0.02777 
93.033333 7.238558 
93.945488 0.029928 
93.971794 0.027613 
94.921387 0.025469 
94.979591 7.480377 
95.01255 0.060007 
95.933266 0.886535 
95.951012 1.002618 
96.940353 0.031022 
96.958885 100.0 
96.975708 0.146401 
96.992012 0.028631 
97.78656 0.029326 
97.958359 0.221887 
98.954628 3.877216 
98.963104 0.203145 
99.924614 0.029031 
101.296158 0.022801 
102.849922 0.026454 
102.944839 0.028425 
103.643761 0.023375 
103.911163 0.027234 
103.918938 0.291506 
105.276131 0.030599 
106.968063 0.029451 
107.012642 18.306822 
107.925049 0.029377 
108.016106 0.882475 
108.020332 0.60107 
109.028412 0.199365 
109.076828 0.031653 
110.68528 0.024631 
110.752258 0.028707 
110.956825 4.096158 
110.974525 0.323018 
111.053238 0.034456 
112.784027 0.025455 
112.952629 0.103953 
114.676483 0.032706 
116.927353 0.033023 
117.033401 0.687709 
118.940948 0.316948 
118.979744 0.036601 
119.049049 65.972519 
119.987473 0.185757 
120.052414 5.537529 
120.668442 0.02583 
120.760017 0.026072 
121.028404 0.67966 
121.769829 0.02582 
121.963692 0.025058 
122.081421 0.022781 
124.312576 0.026033 
125.023369 0.093022 
127.881065 0.041065 
127.993858 0.024562 
128.475739 0.0217 
129.035965 0.029825 
130.942566 0.546749 
132.381134 0.022613 
133.023285 0.036386 
133.028397 2.871006 
134.482391 0.031598 
135.044083 0.920119 
135.744568 0.03043 
135.869324 0.027614 
136.01564 0.030273 
136.136551 0.029172 
136.398727 0.025757 
136.93895 0.148074 
137.023315 0.183583 
138.112411 0.029492 
138.65242 0.035153 
139.298294 0.029763 
141.925323 0.035438 
143.049271 2.132603 
144.052719 0.026299 
144.18457 0.024611 
145.028473 1.040418 
145.967026 0.03207 
147.945557 0.072965 
148.616486 0.030534 
149.023376 0.026918 
149.998779 0.026593 
151.002655 9.966559 
151.041428 0.031596 
152.006226 0.14472 
152.91658 9.858683 
154.486252 0.031233 
154.912537 0.119357 
154.943771 0.028039 
156.528854 0.025149 
157.065308 0.028443 
157.758499 0.032387 
160.841385 0.131539 
161.059937 1.244398 
162.838409 0.109973 
163.47287 0.026572 
164.483994 0.027137 
165.018661 0.48995 
165.739792 0.029786 
166.903137 0.031104 
166.909821 0.186728 
166.952423 0.035516 
167.332809 0.028297 
167.415833 0.024885 
167.729126 0.02848 
167.903824 1.831293 
167.945084 0.030969 
168.593613 0.028887 
169.881897 0.033068 
170.889587 0.255852 
171.887421 0.348486 
171.982819 0.074687 
172.885223 0.035533 
173.685654 0.027572 
174.222916 0.029345 
174.934067 0.031679 
175.039383 0.029339 
175.826447 0.029002 
176.992691 0.031004 
177.018723 1.586973 
177.301575 0.025902 
179.772308 0.024586 
179.882431 0.033618 
183.011673 2.119046 
183.460693 0.028858 
183.898056 0.034994 
184.001236 1.750565 
184.503052 0.040571 
185.049576 0.036133 
185.060379 0.311787 
185.892654 0.059548 
187.039536 2.971141 
188.042984 0.035005 
188.881348 0.028831 
190.099274 0.023165 
193.233276 0.029222 
194.283432 0.032379 
194.927673 0.208901 
195.080109 0.033528 
195.582062 0.031504 
197.027527 0.344011 
197.717667 0.033763 
197.902191 0.153003 
199.231644 0.031259 
199.876556 0.312815 
201.019485 0.035375 
205.433563 0.029532 
206.140793 0.026966 
207.011795 0.210617 
211.112427 0.034875 
212.184738 0.03134 
214.603271 0.027158 
215.871231 0.405388 
220.461853 0.10046 
220.490723 0.123531 
220.502808 0.121669 
220.523544 0.174154 
220.538101 0.091808 
220.89415 0.02384 
221.265121 0.03188 
227.228149 0.033843 
229.221939 0.034728 
230.895081 0.468441 
232.874207 0.900402 
234.469223 0.029902 
235.135681 0.028752 
235.420868 0.027305 
235.591568 0.029298 
235.770966 0.027127 
236.511673 0.029919 
241.477386 0.029663 
245.183334 0.039521 
247.131058 0.032206 
250.703079 0.027983 
251.046478 0.034486 
251.482788 0.027763 
254.856476 0.163232 
255.343811 0.031664 
256.348389 0.025262 
258.559082 0.02673 
261.33252 0.028062 
262.888031 0.031838 
262.992523 0.028005 
267.07962 0.031736 
270.246796 0.024684 
270.775452 0.026946 
271.595337 0.025553 
281.14975 0.024055 
283.13797 0.039411 
283.265656 0.051884 
287.038605 0.921047 
289.002563 0.025604 
290.195709 0.027592 
293.179688 0.095308 
293.196594 0.027254 
294.648956 0.027676 
295.138397 0.0838 
300.878387 0.028866 
302.791382 0.027402 
310.508972 0.029057 
313.617432 0.028465 
319.891083 0.024496 
END IONS

