BEGIN IONS
PEPMASS=895.481
CHARGE=1+
COMPOUNDNAME=Pesticide4_Avermectin B1b_C48H72O14_(1'R,2S,4'S,5S,6R,8'R,10'E,12'S,13'S,14'E,16'E,20'R,21'R,24'S)-6-[(2S)-2-Butanyl]-21',24'-dihydroxy-5,11',13',22'-tetramethyl-2'-oxo-5,6-dihydrospiro[pyran-2,6'-[3,7,19]trioxatetracyclo[15.6.1.1~4,8~.0~20,24~]pentacosa[10,14,16,22]tetraen]-12'-yl 2,6-dideoxy-4-O-(2,6-dideoxy-3-O-methyl-alpha-L-arabino-hexopyranosyl)-3-O-methyl-alpha-L-arabino-hexopyranoside
LIBRARYQUALITY=1
SMILES=CCC(C)C1C(C=CC2(O1)CC3CC(O2)CC=C(C(C(C=CC=C4COC5C4(C(C=C(C5O)C)C(=O)O3)O)C)OC6CC(C(C(O6)C)OC7CC(C(C(O7)C)O)OC)OC)C)C
INCHIKEY=RRZXIRBKKLTSOM-XPNPUAGNSA-N
INCHI=InChI=1S/C48H72O14/c1-11-25(2)43-28(5)17-18-47(62-43)23-34-20-33(61-47)16-15-27(4)42(26(3)13-12-14-32-24-55-45-40(49)29(6)19-35(46(51)58-34)48(32,45)52)59-39-22-37(54-10)44(31(8)57-39)60-38-21-36(53-9)41(50)30(7)56-38/h12-15,17-19,25-26,28,30-31,33-45,49-50,52H,11,16,20-24H2,1-10H3/b13-12+,27-15+,32-14+/t25-,26-,28-,30-,31-,33+,34-,35-,36-,37-,38-,39-,40+,41-,42-,43+,44-,45+,47+,48+/m0/s1
MSLEVEL=2
SOURCE_INSTRUMENT=-Maxis HD qTOF
FILENAME=Pesticide_mix4_BA4_01_8694.mzXML
SEQ=*..*
IONMODE=positive
ORGANISM=GNPS-COLLECTIONS-PESTICIDES-POSITIVE
NAME=Pesticide4_Avermectin B1b_C48H72O14_(1'R,2S,4'S,5S,6R,8'R,10'E,12'S,13'S,14'E,16'E,20'R,21'R,24'S)-6-[(2S)-2-Butanyl]-21',24'-dihydroxy-5,11',13',22'-tetramethyl-2'-oxo-5,6-dihydrospiro[pyran-2,6'-[3,7,19]trioxatetracyclo[15.6.1.1~4,8~.0~20,24~]pentacosa[10,14,16,22]tetraen]-12'-yl 2,6-dideoxy-4-O-(2,6-dideoxy-3-O-methyl-alpha-L-arabino-hexopyranosyl)-3-O-methyl-alpha-L-arabino-hexopyranoside M+Na
PI=Dorrestein/Touboul
DATACOLLECTOR=lfnothias
PUBMED=n/a
SUBMITUSER=mwang87
TAGS=
SPECTRUMID=CCMSLIB00001059008
SCANS=718
71.03566 208.0 
73.065323 763.0 
74.971581 177.0 
79.05497 683.0 
80.021454 166.0 
81.054146 149.0 
81.069641 1662.0 
85.031593 190.0 
85.057098 655.0 
87.027771 178.0 
87.042137 659.0 
87.131256 183.0 
91.028976 284.0 
91.054634 459.0 
93.07019 2264.0 
94.745155 194.0 
95.008362 732.0 
95.048721 1969.0 
95.085884 588.0 
95.177544 161.0 
99.044914 482.0 
99.592941 175.0 
104.851997 241.0 
105.039841 172.0 
105.071594 461.0 
107.085365 725.0 
108.096306 174.0 
109.02623 2012.0 
109.063232 3721.0 
109.099922 2165.0 
110.035286 445.0 
110.069527 1134.0 
112.077576 339.0 
113.058891 2854.0 
114.06559 305.0 
119.051239 225.0 
119.083931 815.0 
121.064667 560.0 
121.100914 2923.0 
122.066612 386.0 
123.043304 341.0 
123.080193 736.0 
123.116341 9235.0 
124.088951 251.0 
124.119865 1309.0 
124.584427 219.0 
125.021057 637.0 
125.051651 544.0 
125.120972 150.0 
127.03701 234.0 
127.075737 1466.0 
128.084976 178.0 
131.045639 629.0 
131.085007 164.0 
132.054688 757.0 
133.059448 225.0 
133.099304 560.0 
135.040558 5207.0 
135.118057 382.0 
136.11734 262.0 
137.056061 1591.0 
137.096909 367.0 
138.063034 378.0 
138.099197 485.0 
139.073608 10925.0 
140.057373 272.0 
140.07756 594.0 
142.059311 406.0 
143.079803 140.0 
144.106277 402.0 
145.086899 2668.0 
146.998444 162.0 
147.043365 869.0 
147.087738 513.0 
149.059143 617.0 
150.111237 149.0 
151.037354 3504.0 
151.073761 8031.0 
151.112747 7450.0 
151.233139 136.0 
152.078934 1274.0 
152.114883 421.0 
153.05304 17100.0 
154.058395 2236.0 
154.086121 624.0 
155.007278 161.0 
155.066605 1240.0 
156.134399 184.0 
157.056198 182.0 
159.079773 630.0 
161.093567 470.0 
163.039001 213.0 
167.067947 6630.0 
167.409866 150.0 
168.076248 1437.0 
169.045914 737.0 
169.077484 391.0 
169.121841 2032.0 
170.106689 222.0 
171.068832 563.0 
172.99147 200.0 
173.058426 3410.0 
173.098938 374.0 
173.131287 216.0 
174.224228 161.0 
175.150864 878.0 
177.084045 306.0 
178.604538 203.0 
179.067734 642.0 
181.055664 205.0 
181.103836 188.0 
182.897522 159.0 
183.010147 335.0 
183.063782 22113.0 
184.069702 4025.0 
185.054138 181.0 
185.07959 4893.0 
186.065292 531.0 
186.111237 324.0 
187.074783 743.0 
187.521866 191.0 
189.089859 257.0 
190.028122 209.0 
190.467209 305.0 
191.029022 255.0 
191.057404 346.0 
191.105026 13196.0 
192.110611 600.0 
193.157501 2931.0 
194.152191 187.0 
194.630157 140.0 
197.083313 398.0 
197.134033 152.0 
199.037842 193.0 
199.112762 403.0 
200.116241 151.0 
201.074081 2882.0 
205.043777 161.0 
209.115982 1593.0 
210.065582 171.0 
210.108398 289.0 
211.070145 1040.0 
211.117569 262.0 
211.176682 217.0 
212.080505 301.0 
214.072052 251.0 
215.103439 276.0 
215.146271 419.0 
220.152542 151.0 
220.99855 188.0 
222.100708 317.0 
223.077545 175.0 
223.115067 195.0 
224.116562 168.0 
225.110809 3473.0 
226.106186 674.0 
226.279343 226.0 
229.12912 355.0 
230.116196 173.0 
234.128189 149.0 
237.110901 392.0 
239.014603 161.0 
239.094009 2607.0 
240.003296 204.0 
240.050461 286.0 
240.113281 21435.0 
241.079315 446.0 
241.117371 6816.0 
242.124664 793.0 
243.123154 596.0 
244.145874 708.0 
248.322174 144.0 
251.125702 1572.0 
253.103104 263.0 
253.132446 312.0 
254.110565 253.0 
255.003723 161.0 
255.065216 220.0 
255.136765 271.0 
256.084686 137.0 
257.024078 198.0 
257.115631 5212.0 
258.11969 523.0 
259.124725 379.0 
263.015564 174.0 
263.098511 142.0 
263.124451 253.0 
265.141418 206.0 
267.101746 406.0 
267.156799 334.0 
271.130981 1714.0 
271.16806 263.0 
275.105499 315.0 
279.081177 164.0 
280.131866 232.0 
281.137848 1867.0 
283.095825 812.0 
283.146088 658.0 
284.103424 564.0 
285.112488 1447.0 
285.164551 208.0 
286.117554 319.0 
286.16214 213.0 
287.124847 1187.0 
287.200043 184.0 
288.1297 420.0 
289.099854 253.0 
291.100159 154.0 
291.141083 173.0 
292.14328 260.0 
293.149109 164.0 
295.122437 323.0 
295.151184 709.0 
296.516174 206.0 
296.723907 188.0 
297.130829 821.0 
298.055206 213.0 
299.118988 142.0 
299.154877 483.0 
301.104797 2716.0 
302.832703 192.0 
303.119446 3200.0 
304.067322 185.0 
304.123322 159.0 
305.173859 12043.0 
306.181213 2048.0 
307.154663 499.0 
309.149414 1317.0 
309.181396 2166.0 
310.181458 412.0 
311.077148 433.0 
311.14798 15934.0 
311.20047 495.0 
312.153412 3117.0 
313.164001 1033.0 
314.173279 240.0 
319.117981 297.0 
319.158356 746.0 
320.122681 312.0 
323.181732 310.0 
325.186462 426.0 
326.582733 181.0 
327.145203 4046.0 
327.193787 26869.0 
328.070557 179.0 
328.20047 3854.0 
329.091064 368.0 
329.161072 5496.0 
329.202362 955.0 
331.124603 162.0 
331.201538 168.0 
335.084564 290.0 
335.161896 1358.0 
336.169037 473.0 
337.180237 738.0 
345.189178 732.0 
350.015045 179.0 
353.17392 4290.0 
354.177032 924.0 
355.22345 161.0 
356.10672 194.0 
357.231445 149.0 
357.618256 182.0 
359.196228 913.0 
360.325317 136.0 
361.2117 1211.0 
361.952698 146.0 
362.197418 283.0 
363.144409 163.0 
367.182098 481.0 
368.189178 143.0 
369.125793 141.0 
369.174713 663.0 
375.474091 179.0 
377.130157 195.0 
377.210297 5277.0 
378.211853 712.0 
380.140442 151.0 
381.175232 159.0 
385.198303 2605.0 
386.19812 498.0 
387.217468 378.0 
389.449432 174.0 
389.658234 156.0 
395.147644 298.0 
395.206085 5612.0 
395.73645 150.0 
396.168823 198.0 
396.211029 762.0 
397.162384 357.0 
398.157471 262.0 
399.181244 196.0 
401.247559 173.0 
415.172119 841.0 
415.216919 804.0 
417.226898 328.0 
421.198242 689.0 
422.190948 231.0 
423.19165 465.0 
423.443573 151.0 
425.218994 591.0 
426.225372 145.0 
428.255524 271.0 
430.960846 177.0 
431.20401 892.0 
437.196228 256.0 
438.186127 305.0 
439.210114 1916.0 
439.262177 195.0 
440.16629 295.0 
441.210693 284.0 
443.257294 619.0 
443.705627 140.0 
444.263794 335.0 
447.200653 644.0 
447.238525 984.0 
448.539948 172.0 
449.076874 293.0 
449.253754 37004.0 
449.512329 136.0 
450.126038 181.0 
450.257172 8418.0 
451.261353 1178.0 
454.569946 236.0 
454.942139 180.0 
455.073364 302.0 
455.243256 21822.0 
456.248169 5557.0 
457.261322 713.0 
458.610931 204.0 
459.253784 976.0 
460.253754 441.0 
461.564758 205.0 
462.069 174.0 
462.531219 137.0 
463.232605 1391.0 
464.227692 341.0 
464.577026 152.0 
466.901581 198.0 
467.244293 239.0 
468.300415 193.0 
473.285797 903.0 
474.205719 264.0 
474.292511 135.0 
477.270996 419.0 
479.274353 796.0 
479.882355 141.0 
480.256653 316.0 
481.070343 149.0 
482.888458 244.0 
487.789062 165.0 
497.177887 174.0 
497.254303 7274.0 
498.143372 205.0 
498.255096 1426.0 
503.273346 1077.0 
504.280945 435.0 
505.263977 632.0 
509.305023 1387.0 
510.310974 622.0 
511.264069 215.0 
511.325165 673.0 
511.410004 190.0 
513.2323 152.0 
520.336121 198.0 
521.291321 7819.0 
522.246948 387.0 
522.291687 2724.0 
523.29718 848.0 
527.309448 1662.0 
528.283264 379.0 
529.155884 222.0 
529.209412 354.0 
529.282654 2043.0 
529.335266 348.0 
530.289185 825.0 
530.339355 256.0 
531.289246 418.0 
537.292053 173.0 
540.307373 151.0 
541.233459 304.0 
541.275696 820.0 
542.204041 179.0 
542.249634 304.0 
542.291931 298.0 
544.323547 142.0 
545.241333 306.0 
545.326111 1847.0 
546.328796 1236.0 
555.713623 153.0 
556.258362 313.0 
559.294067 1363.0 
560.299072 685.0 
561.983765 223.0 
565.24884 141.0 
565.293579 191.0 
566.164673 182.0 
566.510742 168.0 
567.425659 212.0 
570.31604 169.0 
571.30426 839.0 
572.296753 211.0 
575.162903 177.0 
575.289612 891.0 
576.288635 301.0 
577.311829 149.0 
581.361267 259.0 
583.288757 1160.0 
586.322449 195.0 
587.287842 152.0 
588.315979 645.0 
589.275452 280.0 
589.319092 3194.0 
589.922607 212.0 
590.317566 769.0 
591.27417 407.0 
591.32074 514.0 
598.323853 167.0 
598.490906 249.0 
598.637756 163.0 
599.322937 809.0 
600.317627 183.0 
603.251404 208.0 
603.331482 620.0 
603.732483 234.0 
604.33429 244.0 
605.326355 426.0 
606.313049 764.0 
606.762085 151.0 
607.32666 10762.0 
607.609253 220.0 
608.265869 385.0 
608.326965 3473.0 
609.315186 838.0 
613.285461 223.0 
617.294495 146.0 
617.373169 977.0 
618.372131 432.0 
623.210876 169.0 
623.322754 882.0 
623.364197 805.0 
624.340149 453.0 
625.32196 224.0 
627.63916 212.0 
637.359131 283.0 
641.160522 173.0 
641.333252 10666.0 
641.923584 210.0 
642.336731 3091.0 
643.335388 694.0 
647.317749 582.0 
647.366211 813.0 
648.370605 578.0 
665.369202 8521.0 
666.374512 3864.0 
667.377625 568.0 
671.408875 414.0 
672.384521 333.0 
674.492981 182.0 
679.442017 194.0 
681.366638 390.0 
683.387024 406.0 
685.045288 190.0 
685.364502 531.0 
686.2854 175.0 
688.344116 159.0 
689.331299 329.0 
689.408508 5382.0 
690.406433 2029.0 
691.421326 222.0 
702.375854 221.0 
704.256531 173.0 
710.41333 185.0 
715.394531 197.0 
718.953979 168.0 
720.969849 219.0 
721.082642 177.0 
725.559692 175.0 
727.372681 2892.0 
728.373962 770.0 
729.369629 284.0 
730.401978 164.0 
733.40448 882.0 
734.388855 447.0 
735.411316 127.0 
741.156189 185.0 
741.750488 152.0 
746.592651 169.0 
747.40094 1519.0 
748.407837 998.0 
750.13208 211.0 
751.071411 315.0 
751.233948 619.0 
751.40686 45511.0 
752.264282 208.0 
752.408997 18686.0 
753.418091 2695.0 
753.584534 165.0 
755.351196 223.0 
759.039368 170.0 
760.190369 331.0 
767.440674 953.0 
768.441711 456.0 
779.943481 195.0 
785.440125 162.0 
789.026978 182.0 
791.439209 276.0 
796.360657 181.0 
798.663818 182.0 
800.489685 160.0 
806.107544 169.0 
809.161072 176.0 
809.411804 1829.0 
810.324463 254.0 
810.392822 575.0 
811.076416 169.0 
811.428833 390.0 
815.477051 904.0 
823.011108 233.0 
833.485413 9479.0 
833.590637 154.0 
833.885864 159.0 
834.393799 226.0 
834.483093 3384.0 
835.317932 161.0 
835.482361 884.0 
839.339111 209.0 
839.61615 254.0 
849.715515 155.0 
851.27771 141.0 
852.726562 168.0 
869.06488 149.0 
871.562195 215.0 
875.299927 231.0 
877.478455 2527.0 
877.662292 149.0 
878.475891 1316.0 
878.956848 413.0 
879.405579 213.0 
879.487244 535.0 
879.698547 219.0 
879.77887 156.0 
880.710388 226.0 
880.773132 318.0 
880.832153 218.0 
881.515015 194.0 
881.58075 233.0 
882.582214 196.0 
883.067932 427.0 
883.890747 195.0 
884.048523 115.0 
886.139954 154.0 
886.443848 255.0 
887.134766 179.0 
890.509277 236.0 
890.972778 320.0 
891.387024 313.0 
891.75708 164.0 
892.023926 165.0 
892.338745 199.0 
892.452271 278.0 
892.990417 373.0 
893.212097 185.0 
893.270447 278.0 
893.53772 494.0 
893.603699 291.0 
893.685059 222.0 
893.753235 225.0 
893.821899 158.0 
894.021362 299.0 
894.220459 641.0 
894.274658 878.0 
894.457886 1173.0 
894.639099 384.0 
894.681885 531.0 
894.76178 732.0 
894.800964 705.0 
894.866211 390.0 
894.961365 1407.0 
895.050781 1842.0 
895.166687 3445.0 
895.482361 977282.0 
895.701477 1211.0 
895.77356 883.0 
895.848267 964.0 
895.929749 1359.0 
896.043579 1287.0 
896.130737 1863.0 
896.485901 386734.0 
896.673828 689.0 
896.795227 595.0 
897.012146 905.0 
897.109436 761.0 
897.207275 1131.0 
897.31311 1905.0 
897.48822 83737.0 
897.707397 918.0 
897.96759 291.0 
898.046448 363.0 
898.254822 537.0 
898.377197 522.0 
898.494019 4924.0 
898.627686 501.0 
899.22644 345.0 
899.435303 143.0 
899.95575 211.0 
900.026245 227.0 
900.164307 434.0 
900.405945 363.0 
900.614197 366.0 
900.684082 597.0 
900.791016 327.0 
900.951355 373.0 
901.528748 443.0 
901.647583 315.0 
901.734436 377.0 
901.956238 214.0 
902.015564 151.0 
902.144958 136.0 
902.389648 201.0 
903.989075 263.0 
905.643677 254.0 
908.226868 249.0 
END IONS

