BEGIN IONS
PEPMASS=616.0
CHARGE=1+
COMPOUNDNAME=Massbank:KO003893 Paromomycin|Zygomycin A1|Catenulin|Monomycin A|Hydroxymycin|Aminosidin
LIBRARYQUALITY=3
SMILES=OCC(O1)C(O)C(O)C(N)C1OC(C(N)4)C(C(O)C(N)C4)OC(O3)C(O)C(C(CO)3)OC([H])(O2)C(N)C(O)C(O)C(CN)2
INCHIKEY=UOZODPSAJZTQNH-UHFFFAOYSA-N
INCHI=1S/C23H45N5O14/c24-2-7-13(32)15(34)10(27)21(37-7)41-19-9(4-30)39-23(17(19)36)42-20-12(31)5(25)1-6(26)18(20)40-22-11(28)16(35)14(33)8(3-29)38-22/h5-23,29-36H,1-4,24-28H2/t5-,6+,7+,8-,9-,10-,11-,12+,13-,14-,15-,16-,17-,18-,19-,20-,21-,22-,23-/m1/s1
MSLEVEL=2
SOURCE_INSTRUMENT=ESI-LC-ESI-QQ
FILENAME=Massbank_ESI_positive_8_1_2014_peaks.mgf
SEQ=*..*
IONMODE=Positive
ORGANISM=MASSBANK
NAME=Massbank:KO003893 Paromomycin|Zygomycin A1|Catenulin|Monomycin A|Hydroxymycin|Aminosidin [M+H]+
PI=Putative Massbank Match
DATACOLLECTOR=Massbank
PUBMED=N/A
SUBMITUSER=mwang87
TAGS=
SPECTRUMID=CCMSLIB00000220302
SCANS=9685
153.8 64356.5 
161.0 24752.5 
163.2 74257.5 
163.6 19802.0 
203.4 49505.0 
226.4 222772.5 
230.2 59406.0 
235.6 9901.0 
278.7 24752.5 
289.1 34653.5 
293.2 292079.5 
324.6 257426.0 
391.0 19802.0 
425.1 39604.0 
455.7 89109.0 
456.6 74257.5 
496.1 29703.0 
616.6 10391099.5 
END IONS

