BEGIN IONS
PEPMASS=143.0
CHARGE=1+
COMPOUNDNAME=Massbank:KO002837 Ectoine
LIBRARYQUALITY=3
SMILES=CC(N1)=NC(CC1)C(O)=O
INCHIKEY=WQXNXVUDBPYKBA-UHFFFAOYSA-N
INCHI=1S/C6H10N2O2/c1-4-7-3-2-5(8-4)6(9)10/h5H,2-3H2,1H3,(H,7,8)(H,9,10)
MSLEVEL=2
SOURCE_INSTRUMENT=ESI-LC-ESI-QQ
FILENAME=Massbank_ESI_positive_8_1_2014_peaks.mgf
SEQ=*..*
IONMODE=Positive
ORGANISM=MASSBANK
NAME=Massbank:KO002837 Ectoine [M+H]+
PI=Putative Massbank Match
DATACOLLECTOR=Massbank
PUBMED=N/A
SUBMITUSER=mwang87
TAGS=
SPECTRUMID=CCMSLIB00000218175
SCANS=8639
41.0 49505.0 
42.1 1148516.0 
44.0 584159.0 
55.3 54455.5 
56.2 5475253.0 
57.2 118812.0 
68.0 59891149.0 
69.8 64356.5 
73.1 133663.5 
76.1 14851.5 
80.0 282178.5 
81.1 79208.0 
82.2 49505.0 
83.3 2242576.5 
84.2 183168.5 
97.1 13371300.5 
98.1 727723.5 
101.1 118812.0 
142.9 94059.5 
END IONS

