BEGIN IONS
TITLE=Scan Number: 3855
PEPMASS=610.32001
CHARGE=1+
COMPOUNDNAME=Psymberin
LIBRARYQUALITY=3
SMILES=O[C@@H](C[C@H]1O[C@H]([C@H](OC)NC([C@@H](O)[C@H](CC(C)=C)OC)=O)C[C@@H](O)C1(C)C)[C@@H](C)[C@@H](CC2=C(C)C(O)=CC(O)=C23)OC3=O
INCHIKEY=BNNIEBYABSNREN-CYRUSRGFSA-N
INCHI=
MSLEVEL=2
SOURCE_INSTRUMENT=LC-ESI-qTof
FILENAME=f.meodedr/RAM_2015_06_22_PsySTNDRD.mzXML;
SEQ=*..*
NOTES=
IONMODE=Positive
ORGANISM=GNPS-LIBRARY
NAME=Psymberin M+H
SPECTRUMID=CCMSLIB00000478652
ACTIVATION=CID
INSTRUMENT=ion trap
SCANS=3855
51.944122 30196.980469 
51.944477 60354.617188 
51.944832 75376.039062 
51.945187 67603.203125 
51.945545 44154.652344 
55.400578 41268.121094 
55.40097 66054.78125 
55.40136 76973.085938 
55.401752 67082.398438 
55.402142 41732.699219 
59.32465 47645.316406 
59.325085 78140.632812 
59.325516 86759.1875 
59.325951 68112.453125 
59.326385 35367.953125 
60.98999 35839.390625 
60.990444 67235.867188 
60.990894 82356.289062 
60.991348 72283.164062 
60.991798 45518.628906 
66.075058 29982.544922 
66.075569 66497.25 
66.07608 88670.476562 
66.076591 79700.203125 
66.077095 45899.640625 
81.069176 43454.777344 
81.069862 96102.054688 
81.070557 137089.4375 
81.071251 140103.484375 
81.071945 103723.960938 
81.072632 53309.503906 
84.24337 46876.761719 
84.244102 76341.007812 
84.244835 84816.085938 
84.245575 65537.054688 
84.246307 32285.152344 
84.576538 55240.265625 
84.577278 85906.085938 
84.578011 91413.164062 
84.578751 67466.15625 
84.579491 30615.738281 
95.082855 33362.152344 
95.083733 92337.0 
95.084618 248193.390625 
95.085495 417857.8125 
95.086372 476362.59375 
95.08725 326851.5 
95.088135 166986.84375 
95.089012 55349.90625 
97.061699 31565.599609 
97.062607 89803.289062 
97.063507 279554.8125 
97.064415 486428.0625 
97.065323 627764.0 
97.066231 473550.375 
97.067139 264294.5625 
97.068047 67066.679688 
107.048027 65790.53125 
107.04908 113248.84375 
107.050133 130589.96875 
107.051178 106247.351562 
107.052231 58926.773438 
111.078346 53987.492188 
111.079453 106056.195312 
111.080566 142327.765625 
111.081673 137420.453125 
111.082787 95174.21875 
111.083893 44433.960938 
119.082771 37871.371094 
119.084007 92263.5 
119.085236 132823.921875 
119.086472 127828.5625 
119.087708 80799.28125 
119.088936 27657.730469 
123.077339 70455.296875 
123.078636 153560.015625 
123.079933 220292.484375 
123.08123 223342.171875 
123.08252 162050.1875 
123.083817 82007.421875 
123.085114 30467.275391 
125.056206 28939.990234 
125.057533 83772.46875 
125.058861 137863.96875 
125.060181 151804.875 
125.061508 115092.820312 
125.062836 55489.488281 
142.082855 48223.308594 
142.084473 90494.765625 
142.086075 113407.882812 
142.087677 100766.289062 
142.089279 60773.589844 
147.075729 68089.1875 
147.077423 141206.234375 
147.079117 198314.84375 
147.080811 198007.90625 
147.082504 140439.46875 
147.084183 66409.945312 
165.049026 47661.527344 
165.051041 123029.5 
165.053055 199376.125 
165.055054 219332.875 
165.057068 167461.640625 
165.059082 85099.601562 
165.061096 24470.335938 
177.081497 6367.100098 
177.083725 93416.046875 
177.085953 357825.15625 
177.088196 679516.5 
177.090424 983797.25 
177.092667 871144.3125 
177.094894 523744.3125 
177.097137 204920.140625 
177.099365 23076.300781 
179.266815 32699.595703 
179.269089 78144.34375 
179.271362 110431.070312 
179.273636 103232.257812 
179.275925 61379.023438 
193.040146 52587.609375 
193.042694 141226.96875 
193.045242 363672.6875 
193.047775 609514.5625 
193.050323 690550.3125 
193.052872 472552.78125 
193.055405 243802.09375 
193.057953 60418.609375 
203.06189 54769.179688 
203.064636 127341.320312 
203.067383 198290.015625 
203.070129 218671.578125 
203.072876 174412.453125 
203.075623 98581.703125 
203.078369 36221.234375 
205.077621 76355.898438 
205.080399 270861.84375 
205.083191 493384.8125 
205.085968 683615.875 
205.08876 568368.875 
205.091537 328343.21875 
205.09433 106764.5625 
206.086487 51170.722656 
206.089294 88320.734375 
206.092102 105109.945312 
206.09491 90133.242188 
206.097717 53991.324219 
219.594589 68891.867188 
219.597672 99198.117188 
219.600769 107805.539062 
219.603851 84983.851562 
219.606934 42218.839844 
221.074081 57413.210938 
221.077194 116278.554688 
221.080307 157966.78125 
221.083435 152877.59375 
221.086548 104107.289062 
221.089661 47681.414062 
260.702057 54620.464844 
260.706055 89204.84375 
260.710052 100238.539062 
260.71405 81764.664062 
260.718048 47431.949219 
386.186615 61858.050781 
386.193817 106262.25 
386.201019 117812.140625 
386.208221 87877.25 
386.215424 40874.425781 
404.180664 48683.878906 
404.188385 202461.828125 
404.196075 399234.625 
404.203796 595798.1875 
404.211487 553283.6875 
404.219208 342502.71875 
404.226898 147279.03125 
404.234619 49308.984375 
405.184326 24203.220703 
405.192047 78837.289062 
405.199799 148792.3125 
405.20752 190031.296875 
405.215271 173169.296875 
405.222992 111520.226562 
405.230743 46871.214844 
432.650024 60103.679688 
432.658539 95807.171875 
432.667084 107634.203125 
432.675629 85668.59375 
432.684143 44816.3125 
END IONS

