BEGIN IONS
PEPMASS=268.118
CHARGE=1+
COMPOUNDNAME=Citrinin
LIBRARYQUALITY=3
SMILES=N/A
INCHIKEY=CQIUKKVOEOPUDV-IYSWYEEDSA-N
INCHI=InChI=1S/C13H14O5/c1-5-7(3)18-4-8-9(5)6(2)11(14)10(12(8)15)13(16)17/h4-5,7,15H,1-3H3,(H,16,17)/t5-,7-/m1/s1
MSLEVEL=2
SOURCE_INSTRUMENT=N/A-ESI-QFT
FILENAME=library_mgf.mgf
SEQ=*..*
IONMODE=positive
ORGANISM=MONA
NAME=Citrinin [M+NH4]+
PI=MoNA
DATACOLLECTOR=MoNA:VF-NPL-QEHF027301
PUBMED=N/A
SUBMITUSER=mwang87
TAGS=
SPECTRUMID=CCMSLIB00004720882
SCANS=27301
50.230682 0.035771 
50.601456 0.042044 
51.793873 0.039901 
51.94022 0.948586 
52.950615 0.038191 
54.258331 0.038071 
54.361565 0.034562 
54.748215 0.036649 
55.018074 0.043685 
55.054482 2.783971 
55.760342 0.036652 
56.049713 0.154944 
56.19297 0.043696 
56.313965 0.03322 
56.769112 0.035221 
56.852116 0.038593 
56.965034 5.978736 
57.033714 0.894736 
57.070114 6.28446 
57.985508 0.033329 
58.065346 2.677496 
58.230713 0.043821 
58.66433 0.058908 
58.70784 0.045061 
59.049286 1.562722 
59.155891 0.042739 
59.202763 0.036189 
60.044411 0.044338 
61.010822 15.953413 
62.01865 28.345007 
62.06818 0.038727 
63.006535 0.166944 
63.017944 0.048098 
63.021866 0.227094 
63.026363 0.959526 
63.997822 0.560566 
64.014336 0.523737 
64.283524 0.0397 
64.869637 0.036436 
65.200737 0.038348 
65.669312 0.048581 
65.857437 0.041763 
66.355583 0.037306 
67.054298 2.976839 
67.357353 0.046876 
67.934975 0.096635 
69.033455 0.046876 
69.069916 3.675032 
70.065117 2.832694 
70.980293 0.053193 
71.049156 3.427661 
71.085594 2.302013 
71.087311 0.043518 
71.480293 0.046284 
72.080688 0.170604 
72.111588 0.042561 
72.289612 0.043526 
73.028351 0.158807 
73.064796 0.538453 
73.314026 0.034344 
74.050949 0.035599 
74.059845 0.088727 
74.096306 0.213971 
74.975395 0.151927 
75.043991 0.210291 
76.048393 0.040998 
76.975853 0.044587 
77.11158 0.03946 
78.013321 0.167099 
78.470978 0.043352 
79.021172 29.378872 
79.054184 0.643242 
80.024452 0.19851 
80.219917 0.043395 
81.016968 0.792289 
81.069862 4.952054 
81.454918 0.039773 
81.502136 0.045672 
82.499901 0.038755 
83.049026 1.608611 
83.085457 2.827624 
83.660988 0.048003 
84.044373 0.049588 
84.080696 0.285579 
84.095688 0.040119 
85.028244 0.220996 
85.064697 1.373248 
85.101021 0.841101 
85.94529 0.067326 
86.060059 0.187674 
86.096291 1.682378 
86.455254 0.04306 
87.043991 1.706662 
88.015602 0.042956 
88.0756 0.111426 
88.173653 0.042151 
89.059647 8.418017 
89.704765 0.041789 
91.054138 1.097198 
91.057259 0.674625 
92.981583 0.036111 
92.98597 0.058196 
93.069748 2.042444 
94.60141 0.04187 
95.048943 0.278197 
95.085472 6.047818 
95.215714 0.037925 
96.044479 0.091696 
96.08886 0.041059 
96.110046 0.043874 
97.064713 0.581035 
97.101044 2.098221 
98.984116 66.765945 
99.043968 0.229836 
99.080147 0.098308 
100.075523 0.416534 
100.614372 0.037588 
101.059616 1.4261 
101.940254 0.043727 
102.94799 0.561115 
103.038849 1.116063 
103.075294 0.182487 
103.331917 0.035103 
103.95591 0.155591 
104.224808 0.040266 
104.992111 0.208032 
105.033485 0.223318 
105.06987 1.226025 
106.999802 1.159884 
107.052269 0.225432 
107.070282 0.05172 
107.085388 2.144552 
108.493279 0.221478 
109.064674 0.737263 
109.101181 3.812284 
109.602585 0.048043 
110.071159 0.471684 
110.378204 0.035009 
110.875999 0.03633 
111.04377 0.10564 
111.080246 0.559808 
111.116722 0.408868 
111.740517 0.044005 
112.075584 0.066351 
112.408836 0.034831 
113.059494 0.874681 
113.749107 0.037121 
114.091171 0.042258 
114.947189 0.040188 
115.075165 0.094004 
116.005203 3.239173 
116.106789 0.05621 
116.985832 0.062302 
116.994583 1.312954 
117.00312 0.043077 
117.054558 0.372227 
117.069649 0.039641 
117.091011 0.044577 
118.942894 0.78995 
119.001472 0.140086 
119.04911 0.111881 
119.08551 3.376581 
119.441368 0.035749 
119.515694 0.040219 
119.950768 1.760552 
120.088509 0.057876 
120.958313 0.039317 
121.064606 0.582894 
121.08551 0.042256 
121.101036 2.246975 
121.966553 0.039211 
123.080322 0.96841 
123.116661 1.45496 
123.42881 0.041075 
124.12973 0.042193 
124.202705 0.040532 
124.685684 0.039162 
124.918549 0.041893 
125.059731 0.185067 
125.095947 0.479754 
126.091232 0.160328 
127.038574 0.047576 
128.143188 0.104523 
128.963852 0.325486 
129.069656 0.669353 
129.971481 0.290053 
130.934052 0.045934 
130.942993 0.974761 
130.981461 0.180812 
131.07019 0.189246 
131.085342 1.207693 
131.636948 0.041338 
131.950562 0.071124 
131.961243 0.100977 
131.987137 0.042095 
132.958481 0.10157 
133.034622 0.047762 
133.064651 1.070911 
133.085663 1.446787 
133.100922 0.943673 
134.853729 0.042874 
134.978638 4.438299 
135.043823 0.668226 
135.080215 0.720641 
135.116623 0.879544 
135.982208 0.059543 
136.003769 0.043743 
136.061615 0.246085 
136.075119 0.061375 
136.439682 0.049179 
136.974106 0.050024 
137.011581 3.048919 
137.059555 2.449278 
137.095932 1.4705 
137.132416 0.408467 
138.022842 0.039745 
138.063339 0.047584 
138.971375 0.102771 
139.075272 0.354868 
139.111588 0.52945 
140.142853 0.066849 
142.158783 0.037374 
143.085709 0.10542 
144.184219 0.049155 
144.577728 0.051509 
144.947189 4.01821 
144.958542 4.373469 
144.997131 0.474911 
145.064514 0.174234 
145.100876 0.145964 
145.948456 0.111497 
145.958282 0.061326 
146.072678 0.057456 
146.920319 0.059055 
146.945923 2.360606 
146.956451 0.945793 
146.974579 2.737075 
147.043808 0.611414 
147.080322 5.8191 
147.116562 0.389979 
147.974579 2.49003 
147.981918 1.882698 
148.083496 0.62832 
149.011856 0.128185 
149.059448 0.925242 
149.095856 0.6212 
149.132294 0.093634 
149.48381 0.044518 
149.971924 0.685459 
151.038834 0.835925 
151.075226 1.623442 
151.096924 0.047556 
151.11145 0.856163 
152.449799 0.042172 
152.951111 0.516107 
152.989197 5.717908 
153.054443 0.333221 
153.949005 0.426076 
153.959 0.053558 
154.984818 0.130044 
155.022064 1.453969 
155.046448 1.169972 
155.224197 0.051319 
156.076508 0.297365 
156.940414 0.047884 
156.98201 0.206484 
157.064651 0.348152 
157.603165 0.228999 
158.973724 0.128448 
159.080124 0.828434 
159.116959 0.04707 
159.964417 0.063197 
159.992828 0.046891 
160.083313 0.043691 
161.059494 1.984959 
161.095901 0.422395 
162.008438 0.099081 
162.95137 0.796943 
162.968658 0.106399 
163.027374 1.642958 
163.074997 0.266468 
163.111572 0.633056 
163.147705 0.070752 
163.164032 0.045404 
163.959122 0.258744 
164.021988 0.057094 
164.930573 0.220086 
164.966995 0.737214 
165.054535 0.504681 
165.090881 3.012401 
165.984741 0.043213 
166.093887 0.047311 
167.004852 0.193442 
167.070129 1.231263 
167.106339 0.084681 
168.138901 0.043581 
169.049332 4.367524 
170.053528 0.03812 
170.946533 0.047516 
170.96228 0.049262 
170.998703 0.476308 
171.959549 0.632575 
173.012329 0.065998 
173.059113 0.083174 
173.095963 0.056972 
173.131607 0.055826 
174.30307 0.04085 
175.075256 11.33112 
175.148071 0.192138 
176.07869 0.893809 
176.966568 0.04369 
176.989136 0.100579 
177.054382 0.622159 
177.090729 1.706112 
178.946121 1.28037 
179.070084 6.833918 
179.106537 4.199186 
179.14299 0.041994 
179.918854 0.044794 
179.946152 0.042116 
179.954086 3.011359 
179.963348 0.042593 
180.073364 0.419521 
180.109756 0.287684 
180.925034 0.301508 
180.962189 0.130609 
181.037643 0.504886 
181.085144 0.113263 
183.032455 0.052397 
183.065414 0.044957 
184.964615 0.048674 
185.059082 0.054509 
186.043503 0.050842 
187.027832 0.22994 
187.075348 0.259047 
187.640228 0.294521 
188.141846 0.284811 
188.584412 0.042375 
188.647827 71.749405 
188.936661 0.812519 
188.967087 4.750155 
189.022049 0.513186 
189.042496 0.047866 
189.090912 1.864897 
189.149521 17.341372 
189.159042 0.076535 
189.651245 1.610946 
189.967728 0.376119 
190.644257 1.317 
190.935989 0.22528 
190.946152 0.378583 
190.965988 3.475661 
191.002167 0.046207 
191.02211 3.590708 
191.037445 0.464965 
191.069733 0.060455 
191.106735 0.249303 
191.125137 0.114664 
191.178879 0.041337 
191.838013 0.04637 
191.954971 0.272389 
191.964508 11.079783 
191.980347 0.046 
191.990341 0.574533 
192.009796 0.151952 
192.022934 0.147369 
192.173889 0.056686 
192.961975 1.429906 
193.037766 3.278282 
193.048096 0.061641 
193.085861 4.747004 
194.039078 0.270526 
194.089066 0.362905 
194.115326 0.482982 
194.941376 0.395119 
194.95134 0.160037 
194.976624 0.057442 
194.999496 0.215665 
195.032532 0.20523 
195.912277 0.18928 
196.645416 0.3705 
196.920486 0.604881 
196.956818 0.051167 
197.014679 1.288045 
197.048019 0.150729 
197.094788 0.04161 
197.114731 0.90312 
197.146851 0.477479 
197.653107 100.0 
197.928162 0.271119 
198.061584 0.071649 
198.154816 23.2512 
198.64238 0.107165 
198.656647 2.527778 
198.936325 0.071856 
199.310638 0.046493 
199.555115 0.077583 
199.649582 1.723103 
200.129944 0.441695 
200.150726 0.044203 
201.090897 0.171046 
202.098465 0.090771 
203.07019 2.524601 
203.393707 0.050724 
204.073059 0.041777 
204.661041 4.313432 
204.96228 0.614219 
205.085663 1.260935 
205.12207 0.226747 
205.162491 0.801499 
205.651047 0.123809 
205.663559 0.052287 
206.089233 0.062278 
206.153366 0.248045 
206.658417 53.510021 
206.947479 0.308647 
206.977676 45.928513 
207.016144 0.244044 
207.021133 0.15807 
207.032715 33.538136 
207.050339 0.066163 
207.054871 0.134081 
207.066833 0.312068 
207.101364 10.489007 
207.16008 12.96191 
207.568802 0.05505 
207.662003 1.430889 
207.977798 7.55363 
208.012787 0.570881 
208.03624 3.017893 
208.104904 1.378734 
208.168686 0.068814 
208.20575 1.132617 
208.654907 0.929824 
208.94632 0.285132 
208.956787 0.281196 
208.974731 4.142154 
209.0121 1.966087 
209.032547 2.005185 
209.048218 2.665336 
209.161072 0.908398 
209.964752 0.790354 
209.975006 8.069344 
210.009277 0.058637 
210.01973 1.408782 
210.031357 0.071653 
210.052246 0.051906 
210.080185 1.786793 
210.185059 3.663427 
211.048355 0.408357 
211.075348 0.179939 
211.111237 0.174089 
212.951065 0.091527 
212.992676 0.282424 
213.04361 0.222454 
213.666245 3.151818 
214.167908 0.518075 
215.025604 0.262446 
215.065079 0.104835 
215.566315 0.33014 
215.663757 5.386263 
215.850174 0.718289 
215.859985 0.26424 
216.045563 0.155655 
216.072754 0.068063 
216.165192 1.067653 
216.671249 0.231441 
217.085907 0.112387 
218.154434 0.058559 
218.166275 0.38555 
219.032745 0.125976 
219.101364 3.803349 
219.79866 0.033803 
220.107803 0.372846 
220.177307 0.115271 
220.956955 0.93234 
220.993378 0.598999 
221.011978 0.589075 
221.08075 0.536934 
221.103455 0.071005 
221.180557 0.521819 
222.990479 0.07323 
223.027298 0.196273 
223.096268 0.119241 
223.991577 0.064172 
224.025787 0.049562 
224.069519 0.241765 
225.043182 34.003662 
225.07692 0.079219 
225.090668 0.436167 
225.111954 0.667911 
226.023941 0.059421 
226.046875 2.975085 
227.022675 5.268879 
227.046021 0.426416 
227.058762 6.466509 
227.070541 0.080467 
227.654678 8.205441 
227.975632 0.072719 
228.029541 0.206716 
228.062119 0.185627 
228.090393 0.963971 
228.156311 2.340884 
228.653503 0.062 
228.663254 0.053985 
229.001312 0.038794 
229.557053 0.076233 
230.026611 0.170298 
230.042145 0.051681 
230.543915 0.057012 
232.955246 0.208613 
233.068573 0.06255 
233.080444 1.518124 
234.072525 0.380353 
234.084076 9.710907 
234.185089 0.252207 
235.00592 0.061714 
235.085587 3.415194 
235.096603 1.231461 
236.061417 0.073335 
236.088577 0.155816 
236.100174 0.060246 
236.162659 1.341113 
236.200516 0.123872 
236.659637 0.929676 
237.078415 0.080694 
237.090088 0.055314 
237.160217 0.654614 
237.553604 0.08421 
238.057785 0.091603 
238.098312 0.225957 
238.216354 2.081414 
238.561096 0.056002 
238.967484 8.767947 
239.002579 0.053633 
239.021301 0.146986 
239.058304 0.271904 
239.07048 0.248361 
239.106262 1.778791 
239.143204 0.042667 
239.968231 1.481803 
240.077332 0.737521 
240.964203 0.206689 
241.038284 0.678473 
241.085342 0.547994 
241.12204 0.066067 
243.054001 3.316667 
244.016205 0.054215 
244.057556 0.059203 
245.032715 0.403493 
245.06871 2.313579 
245.568512 0.177967 
246.073547 1.28436 
246.575562 0.08463 
248.100555 3.109408 
248.60379 0.080247 
249.005829 0.092257 
249.043884 0.12704 
249.075302 0.390752 
249.102203 0.998805 
249.14859 0.210821 
250.074188 0.195635 
250.215744 0.133019 
250.984802 0.254172 
251.001251 0.4148 
251.0215 0.180919 
251.058609 0.06194 
251.069839 0.061852 
251.091171 1.152666 
251.105881 1.068668 
252.054092 0.47771 
252.080139 2.178419 
252.094452 6.789733 
252.111206 0.509958 
252.980209 0.574384 
252.999359 0.282709 
253.016281 0.305074 
253.037552 1.356731 
253.08493 1.402532 
253.096695 2.085742 
253.106781 0.271865 
254.093033 0.510809 
254.142395 3.060364 
255.065277 0.046994 
256.975922 0.062909 
257.032318 0.059557 
259.047943 0.058457 
260.029297 0.066972 
261.059448 0.3528 
261.925903 0.042545 
265.085754 0.301998 
266.09082 3.108544 
266.109894 1.464604 
266.126831 1.481122 
266.14328 0.054963 
266.173096 6.770809 
266.211243 2.361395 
266.247864 4.527332 
266.283691 2.351698 
266.998749 4.397248 
267.014191 0.335376 
267.038208 0.139895 
267.066467 7.378726 
267.101959 56.363667 
267.120087 1.668322 
267.136566 6.655688 
267.156097 0.237859 
267.175476 2.195896 
267.205475 0.227743 
267.242737 2.119166 
267.287506 0.363678 
267.999481 0.713073 
268.071259 2.357924 
268.088135 1.715146 
268.107056 16.28532 
268.141174 0.401753 
268.155487 0.124476 
268.18985 3.728068 
268.205475 0.809891 
268.227509 2.618695 
268.263214 15.006912 
268.299072 2.221312 
268.978149 20.3321 
268.99472 1.381311 
269.013184 1.374049 
269.082123 7.415813 
269.096313 3.832307 
269.116333 9.197091 
269.135529 11.495617 
269.171722 0.485895 
269.18689 1.517498 
269.208466 16.205179 
269.247955 0.083761 
269.266541 2.55865 
269.295166 0.076889 
269.977905 4.52263 
269.99408 0.052619 
270.06842 0.05334 
270.086029 0.667746 
270.102325 0.768213 
270.120331 0.276826 
270.137238 0.137177 
270.148773 0.559171 
270.185364 0.154159 
270.209503 0.57515 
270.223969 0.088149 
270.24231 3.272275 
270.279236 3.893179 
270.315186 8.354526 
270.958221 0.500473 
270.975098 2.538862 
270.990723 0.218185 
271.048279 3.576148 
272.051727 0.069914 
272.152588 1.22855 
281.069122 1.020443 
282.02948 0.109977 
282.072906 0.055438 
282.137115 0.109546 
283.029785 0.806516 
284.153107 2.504522 
284.169281 0.125832 
285.00946 28.716919 
285.026642 2.871455 
285.04599 0.388886 
285.062317 0.173876 
285.076233 0.132567 
285.156403 0.240805 
285.173553 0.273349 
285.598145 0.042857 
286.009521 7.165782 
286.026459 0.419842 
287.006439 4.025504 
287.025391 3.598381 
287.060974 0.064583 
288.007111 0.05875 
289.017059 0.544037 
289.058777 0.696529 
291.031555 0.237877 
END IONS

