BEGIN IONS
PEPMASS=384.25
CHARGE=1+
COMPOUNDNAME=ACTINONIN
LIBRARYQUALITY=3
SMILES=N/A
INCHIKEY=XJLATMLVMSFZBN-VYDXJSESSA-N
INCHI=InChI=1S/C19H35N3O5/c1-4-5-6-8-14(11-16(24)21-27)18(25)20-17(13(2)3)19(26)22-10-7-9-15(22)12-23/h13-15,17,23,27H,4-12H2,1-3H3,(H,20,25)(H,21,24)/t14-,15+,17+/m1/s1
MSLEVEL=2
SOURCE_INSTRUMENT=N/A-ESI-QFT
FILENAME=library_mgf.mgf
SEQ=*..*
IONMODE=negative
ORGANISM=MONA
NAME=ACTINONIN [M-H]-
PI=MoNA
DATACOLLECTOR=MoNA:VF-NPL-QEHF027307
PUBMED=N/A
SUBMITUSER=mwang87
TAGS=
SPECTRUMID=CCMSLIB00004720888
SCANS=27307
50.557438 0.023922 
50.934986 0.02464 
51.484814 0.025955 
51.612919 0.026458 
51.749008 0.034596 
52.258358 0.035242 
52.313374 0.033318 
52.373348 0.038292 
52.498917 0.025889 
52.622017 0.027536 
52.724522 0.026796 
53.154007 0.03327 
53.627579 0.035022 
53.722073 0.037608 
54.762524 0.025404 
55.672668 0.038574 
55.817467 0.032154 
57.082348 0.029472 
57.111553 0.040051 
57.992004 1.495399 
58.028385 1.894459 
59.012405 3.822134 
59.072475 0.030087 
59.088253 0.036421 
59.106365 0.035734 
59.201359 0.031968 
59.905823 0.033135 
60.186596 0.033135 
60.220936 0.024762 
60.402802 0.025226 
60.439034 0.025002 
60.68071 0.036248 
60.991653 3.999596 
61.360432 0.025363 
61.63662 0.024168 
63.143513 0.030219 
64.087425 0.024924 
64.138268 0.036919 
64.290596 0.03742 
64.895607 0.022965 
65.975189 0.045698 
66.023804 0.035635 
67.182655 0.038873 
68.829231 0.0304 
69.575768 0.03524 
69.780121 0.038921 
69.815666 0.027713 
69.954071 0.033353 
70.064728 0.027558 
70.277702 0.024883 
70.45639 0.028165 
71.064705 0.039266 
71.301903 0.034322 
72.007652 3.553055 
72.705162 0.037895 
73.299171 0.032119 
73.340614 0.030054 
73.413139 0.030085 
73.540329 0.03499 
73.613205 0.03766 
74.383614 0.028583 
76.985489 0.041047 
77.127045 0.029122 
77.333618 0.028592 
77.529694 0.025258 
77.700447 0.029859 
78.379936 0.037617 
79.371376 0.037484 
79.720551 0.028294 
79.857521 0.029678 
80.049126 0.064223 
80.821724 0.026816 
81.020592 0.068863 
81.457489 0.035817 
82.028435 0.182754 
82.064804 4.859506 
82.102203 0.025565 
82.156952 0.022517 
82.469193 0.035261 
84.955795 0.039504 
85.064468 0.037842 
85.215462 0.033883 
85.879013 0.041465 
86.042191 0.033288 
86.059654 0.160934 
86.172966 0.035441 
88.381584 0.038364 
88.711266 0.031734 
88.843948 0.028025 
89.09613 0.02622 
89.804779 0.033569 
91.000633 0.023972 
93.524345 0.033322 
93.5308 0.036909 
93.549423 0.044679 
93.882294 0.030679 
94.02845 0.02598 
94.054909 0.023444 
94.744728 0.033288 
95.186485 0.030776 
95.235329 0.030885 
95.315514 0.026629 
95.755714 0.025359 
96.007729 0.274642 
96.044075 2.97775 
96.342758 0.026483 
96.634354 0.028608 
97.015541 7.379317 
97.075737 0.537469 
98.023354 1.144106 
98.059715 2.228763 
99.305923 0.028098 
99.773949 0.03551 
100.075432 5.109492 
100.636009 0.025705 
100.677589 0.030507 
101.059341 0.697286 
101.179527 0.029333 
101.267647 0.029973 
101.457832 0.025182 
101.616493 0.031954 
101.73204 0.028225 
102.640419 0.040541 
102.976189 0.027181 
103.33934 0.039638 
103.34816 0.030253 
103.883995 0.023353 
104.020958 0.024181 
107.24015 0.025592 
108.116501 0.023341 
108.531654 0.031947 
108.818939 0.024666 
109.313431 0.022457 
110.023369 0.082691 
110.096169 0.686757 
110.48362 0.028473 
110.500687 0.022583 
111.08017 6.996894 
111.161049 0.023513 
111.500175 0.02245 
112.023376 0.039086 
112.083633 0.045443 
112.210846 0.025359 
113.095818 7.125274 
113.100266 0.050209 
113.879372 0.043623 
114.054733 5.336344 
114.099274 0.071841 
114.219002 0.035894 
115.086388 0.041135 
116.070389 8.268024 
116.410713 0.034098 
117.073967 0.044702 
121.389099 0.023857 
121.867661 0.032469 
122.096291 1.100606 
122.171661 0.035202 
123.37394 0.033161 
124.075386 0.43459 
124.11187 0.496713 
124.476021 0.029937 
125.071068 0.146074 
125.095856 0.483649 
125.445747 0.026544 
126.054749 20.404419 
126.091003 0.073501 
126.864357 0.033758 
127.05809 0.672886 
127.086632 0.071725 
127.111465 1.2016 
128.106888 0.806138 
129.09082 4.394347 
129.165619 0.044899 
130.264114 0.038225 
130.677307 0.026578 
132.834732 0.033968 
137.095932 0.026224 
137.84169 0.038368 
138.054825 3.267377 
138.091248 0.704236 
138.37677 0.035845 
139.038818 2.643592 
140.071289 0.031243 
140.106812 4.96117 
140.598557 0.030082 
140.604736 0.035521 
141.065857 0.170931 
141.090881 34.650856 
141.983673 0.025219 
142.08609 11.498085 
142.094086 2.093387 
142.122543 0.276001 
142.357773 0.029869 
142.992615 0.032794 
143.082092 0.035093 
143.089249 0.158038 
144.320007 0.046338 
144.600601 0.037944 
146.46196 0.033799 
149.071045 0.027188 
149.363861 0.039382 
150.07872 0.721247 
150.091202 2.966689 
151.061981 0.027781 
151.086899 0.165209 
151.099121 8.894846 
151.619781 0.034092 
152.070602 0.980069 
152.106918 49.37307 
153.065826 0.233082 
153.09082 5.384028 
153.110184 4.188585 
154.07962 0.031152 
154.086197 4.563662 
154.093109 0.168782 
154.122482 0.166588 
155.089325 0.030218 
156.299026 0.026808 
157.782455 0.037347 
157.82164 0.038692 
158.773361 0.037343 
159.477249 0.027477 
160.579926 0.040415 
161.963654 0.036101 
163.882568 0.030938 
164.106369 0.041986 
166.086197 13.498418 
167.089294 0.223208 
167.094528 0.076195 
167.117905 6.184775 
167.894958 0.033225 
168.101868 100.0 
169.085983 2.597906 
169.105209 8.656028 
170.117554 5.007283 
171.083221 0.03761 
171.101562 11.988957 
171.237183 0.034076 
172.104843 0.475609 
173.834381 0.040647 
175.816788 0.042857 
178.110245 8.324945 
178.159103 2.221721 
179.057846 0.025696 
179.094223 2.617062 
179.118362 0.103831 
179.154297 0.300462 
180.102219 0.246478 
180.174911 6.034771 
181.109787 1.00827 
181.178238 0.30785 
182.10495 0.031245 
182.154099 1.56087 
183.112976 2.641453 
183.250198 0.024713 
183.774414 0.029773 
184.096939 13.205598 
184.133652 0.146741 
185.100266 0.725612 
186.112106 0.055796 
188.156815 0.035992 
190.159851 0.025401 
193.2379 0.032833 
194.073975 0.028586 
194.15419 1.925756 
195.112991 6.425262 
195.185822 3.380393 
195.253113 0.02525 
195.436752 0.027266 
196.116699 0.085353 
196.169846 4.49368 
197.128616 2.139333 
199.084244 0.414105 
200.34166 0.031869 
205.561325 0.036656 
206.154327 22.521496 
207.138428 21.381189 
207.157257 2.532885 
207.187424 0.036715 
208.133011 9.715703 
208.14209 1.590194 
208.170029 10.668658 
209.117508 0.068571 
209.137054 0.445232 
209.173386 0.762672 
210.149414 1.729764 
212.005936 0.033002 
212.164841 6.244385 
213.168442 0.2862 
214.07663 2.163597 
214.089172 1.740793 
218.15416 0.03055 
220.168274 0.043659 
221.165268 48.664082 
222.149658 7.372778 
222.168686 5.852498 
223.153183 0.420189 
223.430038 0.033456 
224.16507 39.31485 
225.123932 0.517821 
225.168594 4.899857 
225.180084 0.036027 
226.143982 0.12841 
231.612549 0.041876 
236.165268 1.081117 
237.16008 0.129876 
239.17601 5.04322 
240.123779 0.038956 
240.160172 7.501954 
240.179871 0.102696 
241.1642 0.386685 
243.084564 0.026718 
246.123749 0.032356 
247.092361 0.028382 
250.144592 47.401337 
251.148132 6.57888 
252.160324 10.213656 
252.268921 0.032546 
253.164093 0.605267 
254.891953 0.042994 
256.032013 0.026327 
256.06308 0.041676 
262.131927 0.44615 
263.249878 0.028466 
263.930725 0.023682 
264.195526 0.037832 
265.15509 0.193019 
266.162842 0.048573 
268.155334 6.767793 
269.158997 0.302965 
272.120453 0.031448 
273.157745 0.305288 
276.196869 0.116347 
277.228149 0.053393 
280.142761 4.288184 
281.145782 0.089379 
281.264374 0.03193 
283.166046 18.730694 
284.169464 2.633161 
286.543488 0.035768 
287.279266 0.032288 
289.228516 1.607301 
293.186768 0.918765 
295.061096 0.040832 
295.092194 0.03023 
295.238861 3.087824 
296.24292 0.054484 
297.145264 2.460854 
297.970154 0.03959 
297.989502 0.044691 
303.207184 0.070593 
305.223267 0.036117 
306.107025 0.031706 
307.238953 0.921756 
307.615082 0.031552 
311.197296 0.168153 
315.207947 0.26764 
315.295441 0.034704 
315.857391 0.039055 
320.361542 0.031651 
320.438782 0.028977 
321.218109 2.333863 
322.221558 0.04031 
323.233734 17.517643 
324.237152 3.209182 
325.182281 0.030122 
328.362854 0.02661 
332.60434 0.0344 
333.218201 12.865133 
334.221924 2.528169 
335.048004 0.037114 
335.924927 0.033701 
339.204681 0.034398 
349.41629 0.042197 
351.228638 78.536674 
351.383636 0.032011 
352.232208 15.787238 
353.209442 0.079001 
353.234497 0.920051 
356.610718 0.027626 
363.468475 0.038679 
363.978302 0.037756 
364.97226 0.025489 
384.250092 34.674801 
385.253448 7.334965 
393.351959 0.043091 
395.321838 0.042164 
406.382599 0.03333 
END IONS

