BEGIN IONS
PEPMASS=361.068
CHARGE=1+
COMPOUNDNAME=rabelomycin
LIBRARYQUALITY=3
SMILES=N/A
INCHIKEY=JJOLHRYZQSDLSA-UHFFFAOYSA-N
INCHI=InChI=1S/C19H14O6/c1-19(25)6-8-5-11(21)15-16(13(8)12(22)7-19)17(23)9-3-2-4-10(20)14(9)18(15)24/h2-5,20-21,25H,6-7H2,1H3
MSLEVEL=2
SOURCE_INSTRUMENT=N/A-ESI-QFT
FILENAME=library_mgf.mgf
SEQ=*..*
IONMODE=positive
ORGANISM=MONA
NAME=rabelomycin [M+Na]+
PI=MoNA
DATACOLLECTOR=MoNA:VF-NPL-QEHF000944
PUBMED=N/A
SUBMITUSER=mwang87
TAGS=
SPECTRUMID=CCMSLIB00004692007
SCANS=944
50.41592 0.069694 
52.650417 0.125348 
53.039371 0.078593 
53.226604 0.125073 
55.018604 0.907306 
55.054981 5.848051 
55.804123 0.110507 
55.935108 0.28814 
56.050251 0.812853 
56.965347 0.124437 
57.034214 0.762577 
57.070591 9.678457 
57.202724 0.106247 
58.065834 27.262182 
58.067581 0.147534 
58.074017 0.106451 
58.905815 0.075522 
59.049854 3.124113 
59.061089 12.643998 
59.069153 0.524721 
60.045101 3.579352 
60.064442 0.227586 
61.011333 14.821933 
62.019176 5.42392 
62.060738 0.074485 
62.425922 0.086342 
62.94569 0.097881 
63.007061 0.107519 
63.026993 4.708473 
63.583881 0.069772 
63.99839 0.745045 
64.539001 0.144992 
65.03933 0.0972 
67.054901 8.750655 
67.261703 0.073866 
67.350586 0.069307 
67.65564 0.079324 
68.050072 0.076631 
68.058121 0.090255 
68.413635 0.0669 
69.034134 1.691459 
69.070526 7.903458 
69.504509 0.072059 
70.065788 11.798484 
70.07383 0.114445 
70.197517 0.069921 
70.958458 0.474492 
71.049744 3.934328 
71.06913 0.220939 
71.073402 0.150873 
71.086143 6.684831 
71.088165 0.139704 
71.930031 0.332624 
72.044945 0.402852 
72.081398 2.934611 
72.762276 0.122748 
72.937767 2.63793 
73.028961 0.164626 
73.047432 2.329726 
73.06543 0.391074 
73.218719 0.099962 
73.677597 0.071002 
74.046906 0.093136 
74.060677 0.659651 
74.214706 0.106662 
75.044434 0.36983 
75.611382 0.077561 
76.039825 2.323754 
77.639008 0.117927 
79.01944 0.261823 
79.021759 16.704952 
79.054741 3.43036 
79.639366 0.125005 
80.049973 0.07805 
81.017609 0.214414 
81.034103 0.402055 
81.070435 10.524401 
81.414665 0.112844 
81.858841 0.077426 
82.065636 0.50025 
82.0737 0.255041 
83.04969 1.377637 
83.086075 4.012113 
84.025246 0.115925 
84.044846 0.709249 
84.081306 21.887716 
85.028893 2.086966 
85.065208 0.995081 
85.084633 0.756733 
85.089088 0.648239 
85.101646 1.637506 
85.303955 0.068958 
86.060562 0.780927 
86.096916 4.29183 
87.04454 16.022329 
87.047501 0.093566 
88.047935 2.699693 
88.076172 8.816779 
88.968918 0.236275 
89.060204 12.321373 
89.429176 0.077371 
89.474854 0.089895 
89.964134 1.537696 
90.063492 1.573755 
90.94812 2.964494 
91.054749 57.704941 
91.05777 7.898524 
92.057869 4.797447 
92.061081 0.397345 
93.054535 0.797069 
93.070297 6.283287 
94.065399 0.088799 
94.073746 0.206034 
94.352547 0.13481 
95.049545 1.51039 
95.060623 0.113415 
95.085892 9.552643 
96.081108 0.537853 
96.089226 0.393473 
97.028969 0.108334 
97.065193 2.197249 
97.068466 0.068087 
97.101608 2.705168 
98.096809 0.820699 
98.104759 0.095303 
98.124504 0.074088 
98.469826 0.144167 
98.975739 1.615859 
99.044304 1.042103 
99.080841 1.117638 
99.833534 0.145372 
100.039688 4.111469 
100.076057 1.026367 
100.41758 0.128674 
101.003441 0.127561 
101.023643 0.374204 
101.042168 0.085329 
101.059944 0.615539 
102.054962 0.103981 
102.091675 14.146785 
102.171539 0.13946 
102.707191 0.100565 
103.039299 3.594621 
103.054451 0.186145 
103.075706 0.413045 
103.0951 0.646206 
103.979332 0.084201 
104.034653 0.084458 
104.042633 0.903049 
104.963722 0.11408 
104.992691 0.474601 
105.033958 0.295449 
105.070099 3.871931 
106.065231 0.08349 
106.373177 0.071394 
107.049156 0.110943 
107.070366 0.106644 
107.085846 5.365798 
107.950645 0.230642 
107.967072 0.435521 
108.081078 0.087497 
108.95842 0.430489 
108.982048 0.075189 
109.064964 1.307623 
109.10144 6.336754 
109.319443 0.131697 
109.522087 0.134694 
110.060104 0.178524 
110.096642 0.12299 
110.104759 0.163244 
111.044228 0.572984 
111.080582 1.228284 
111.189568 0.081819 
112.039429 0.914331 
112.075943 0.228981 
113.059799 0.329381 
113.096222 0.081092 
113.51178 0.076172 
113.90831 0.115717 
114.09182 0.195244 
115.039268 0.377283 
115.075478 0.100149 
115.08667 0.099454 
115.095016 0.073911 
116.052696 0.10763 
116.070679 0.420824 
116.963326 0.453731 
116.986 1.47517 
117.070007 2.090447 
118.942741 0.095953 
119.049339 0.109996 
119.08567 43.429546 
119.11792 0.272687 
120.080864 2.276396 
120.088959 3.27684 
120.511108 0.085785 
120.993217 0.160234 
121.064957 3.742506 
121.08567 0.07613 
121.101265 3.749365 
122.060158 0.123225 
122.068207 0.174332 
122.096481 0.178693 
123.080559 1.765852 
123.116875 2.278505 
123.573692 0.124573 
124.07547 0.268349 
124.112274 0.084136 
125.059494 0.284756 
125.096107 1.830671 
125.960968 0.207422 
126.091637 0.303184 
127.036499 0.080983 
128.106796 0.081318 
128.963516 1.856989 
129.017822 0.123363 
129.06987 0.213468 
129.105927 0.131503 
129.356293 0.137617 
129.369476 0.076371 
130.05011 0.12139 
130.065231 0.077773 
130.086136 0.239024 
130.12265 0.080797 
130.408249 0.142449 
130.97879 0.99153 
131.070221 1.188353 
131.085663 1.153654 
131.974426 0.129266 
132.073578 0.189232 
132.102219 0.089667 
132.210587 0.081609 
132.958267 0.993423 
133.064606 0.566665 
133.085846 1.891686 
133.101089 2.239499 
134.089111 0.19747 
134.096497 0.196578 
134.138885 0.07374 
134.150742 0.115342 
134.883591 0.105178 
134.919708 0.483972 
134.95607 1.954098 
134.973724 0.342551 
134.978745 1.78913 
134.996582 0.25008 
135.080292 1.919073 
135.116776 1.473293 
136.112 0.304114 
137.011566 0.342112 
137.059464 0.469974 
137.095993 0.608555 
137.107239 0.252326 
138.054581 0.0864 
138.091232 0.385984 
138.621063 0.12009 
139.07515 0.081846 
139.111938 0.173152 
140.070206 0.369527 
140.14328 3.869756 
141.127045 0.083949 
141.146271 0.10088 
142.122467 0.318929 
142.979019 0.108302 
143.085464 0.15583 
143.973846 0.12927 
144.080612 0.102519 
144.101944 0.406926 
144.958206 0.571029 
145.101044 1.350318 
146.973907 1.705901 
147.080185 0.2053 
147.116821 0.788794 
148.075668 0.094696 
148.955734 0.17187 
148.971741 7.044891 
148.989227 0.387272 
149.059433 0.288547 
149.095993 0.441503 
149.132111 0.39189 
149.972198 0.092239 
150.054855 0.089745 
150.12735 0.079306 
150.950974 11.335215 
150.968506 1.344925 
151.038452 0.142678 
151.111542 0.526882 
152.682709 0.088048 
152.929138 0.089878 
152.959839 0.07876 
152.966827 0.947433 
152.989151 1.105443 
153.054916 0.094765 
153.090637 0.196709 
153.248825 0.083546 
154.086136 1.764376 
154.122986 0.128394 
154.138458 0.097316 
154.946808 0.203103 
156.011261 0.11498 
156.102448 0.071729 
157.010941 0.202869 
157.100967 0.125603 
157.936203 0.243008 
158.010269 0.101746 
158.973526 0.230973 
159.009659 0.106554 
159.079544 0.125212 
159.116684 0.726725 
159.968719 0.220546 
160.98996 0.308777 
161.096054 0.182749 
161.132202 0.488417 
163.075272 0.186567 
163.111526 0.23558 
164.10675 0.115926 
164.966644 0.403949 
165.101959 0.448249 
166.086197 0.144009 
166.131546 0.079002 
166.982071 0.671642 
168.101654 0.144657 
168.917328 0.102239 
168.961548 3.42679 
168.990295 0.500885 
169.101715 0.092185 
169.988602 1.104537 
170.046341 0.13191 
170.956558 0.122303 
170.985397 0.252354 
171.062576 6.632895 
171.080048 0.121778 
171.116394 0.120396 
172.005188 0.383735 
172.11412 0.089707 
173.05957 0.104205 
173.078339 0.208217 
173.095535 0.218268 
173.116364 0.076161 
173.132553 0.225571 
173.946213 0.084286 
173.984695 0.584424 
174.006149 0.185187 
174.127869 0.130654 
175.096634 0.241856 
175.946671 0.275154 
176.930252 0.468191 
177.09108 0.111923 
179.02298 0.174673 
179.953583 2.139278 
180.102158 0.101413 
180.238327 0.087932 
180.887909 1.616206 
180.997681 0.106007 
182.976761 0.315552 
186.021606 0.086829 
186.103241 0.093998 
186.927658 0.229541 
187.057861 0.147512 
188.000046 0.340771 
188.021515 0.25557 
188.9832 0.090435 
190.086533 0.138111 
190.408646 0.12041 
192.174622 1.598003 
192.961578 5.981252 
193.12149 0.14433 
194.116592 0.123103 
194.941116 0.199604 
194.999557 0.165466 
197.014923 0.230943 
197.963715 0.12968 
197.983749 0.151617 
198.854233 0.180527 
200.143402 0.08004 
201.020355 0.117659 
201.123398 2.540663 
202.125183 0.278856 
203.102509 0.12008 
204.888229 0.421466 
205.015533 0.104073 
206.534409 0.079338 
206.977661 1.239436 
207.011307 0.090404 
207.031815 0.098233 
208.955978 1.000894 
209.964157 0.815333 
210.972275 2.272273 
212.959763 0.124205 
213.020187 0.103666 
214.492691 1.391221 
214.500793 1.61545 
214.996155 0.42714 
215.088852 26.584482 
215.99382 0.234359 
216.192032 0.12919 
216.864288 0.109271 
216.964737 0.87392 
217.104538 3.327861 
219.13382 0.394467 
221.939636 0.105447 
222.898407 13.889395 
223.899963 0.270968 
223.979889 0.284805 
224.986404 0.079332 
226.894501 0.565888 
226.966782 0.282248 
226.985504 0.128591 
227.070282 0.088858 
228.067764 0.581044 
228.138641 0.196011 
229.052063 1.570382 
229.972702 0.114255 
231.08374 1.996569 
232.959991 3.4043 
234.93988 0.138111 
236.914642 0.523329 
236.955048 0.436306 
237.979019 0.120648 
238.914062 0.133613 
238.967026 0.095601 
239.900909 0.152383 
240.268417 2.016664 
240.909042 17.094534 
241.271225 0.081761 
241.91066 0.682248 
241.954468 0.600836 
242.909256 0.285052 
242.945312 0.136848 
242.979477 0.107023 
243.06633 0.190527 
243.080032 0.086906 
243.158157 0.17665 
244.88356 0.90444 
244.904892 1.292692 
244.996048 0.647065 
245.098877 0.086748 
247.061722 0.108868 
247.075012 0.612345 
248.3974 0.107678 
248.954773 2.016885 
250.969894 1.186194 
251.046768 0.478681 
251.068985 0.09448 
252.949539 1.676708 
254.924622 0.414227 
255.067215 0.09449 
256.068481 0.079775 
256.205963 0.101633 
257.10379 0.299915 
257.867554 1.077698 
258.856781 0.264053 
258.874298 0.377025 
259.06076 0.09385 
259.114899 29.578308 
259.864044 1.353521 
260.872772 0.09886 
260.899567 0.089975 
260.991211 0.139604 
261.130615 5.082954 
262.894226 1.775316 
264.908051 0.185467 
265.085846 0.490173 
266.084351 0.129971 
266.965515 0.84172 
268.299683 15.295127 
268.904144 0.691383 
269.303284 2.99897 
270.251862 0.084079 
270.278931 0.087626 
271.099243 0.081074 
271.143005 0.141343 
272.127899 1.003021 
274.061676 0.108934 
274.169098 0.130755 
274.91449 0.246567 
275.070099 2.69216 
275.109741 3.203549 
276.889954 0.135446 
277.049255 0.64537 
278.056427 0.183348 
279.064667 1.157455 
280.958649 0.080368 
281.911804 1.615182 
282.079956 0.278507 
282.137421 3.120865 
282.993774 0.722658 
283.061798 0.247176 
283.891083 0.092464 
284.093811 5.48301 
284.293854 0.138074 
285.815704 1.244946 
285.907562 0.510406 
286.894684 0.285182 
286.913849 0.150629 
287.14566 0.436084 
287.831085 0.269487 
289.087006 0.106619 
291.065521 0.65339 
292.072876 3.419338 
293.080505 28.207514 
293.819855 0.130935 
294.828369 0.30281 
300.061371 0.236381 
300.126892 0.286111 
300.147705 7.04629 
301.130005 0.147933 
301.150757 0.255122 
302.057556 2.095758 
302.104523 2.752265 
303.065155 6.733053 
303.141083 3.351128 
304.905273 0.108032 
305.044373 1.30913 
305.080353 0.232968 
305.156738 37.399487 
306.05191 2.651022 
308.936249 0.852213 
309.816589 0.10225 
310.823242 0.937378 
311.830811 2.617151 
312.838623 5.865718 
316.228088 0.086313 
317.080292 1.712126 
318.158936 0.945521 
319.135925 2.349067 
319.835815 16.34634 
320.067841 4.184179 
320.837799 1.286913 
321.075378 20.842829 
325.831085 0.093046 
326.817505 1.642995 
326.854462 0.095098 
327.8255 9.695091 
327.965454 0.569167 
328.833771 4.946349 
328.963715 0.19093 
329.193085 4.112596 
329.840851 0.685128 
333.07605 0.101968 
333.815216 1.320967 
335.090485 0.724095 
336.838562 6.764445 
337.846222 8.065673 
338.847626 0.155404 
341.841431 0.110739 
343.997009 0.176113 
344.09021 0.088312 
344.221771 0.191661 
344.294434 1.639039 
344.828857 6.251669 
344.894135 0.079531 
344.975647 0.717135 
344.997498 0.094566 
345.075287 3.707956 
345.833313 0.362119 
345.975708 14.474902 
346.952637 0.274713 
346.973907 10.024803 
346.999207 1.393684 
347.973572 1.646319 
348.004547 0.241188 
349.016724 0.144763 
350.946411 0.290697 
350.993103 0.096682 
351.826141 1.319582 
352.831726 0.085245 
354.849884 0.341616 
359.203125 1.50619 
359.235962 4.277586 
360.112946 1.062362 
360.137604 0.592132 
360.159973 0.612581 
360.195129 1.351955 
360.36261 4.269944 
360.838745 1.743353 
361.067688 0.49979 
361.12088 0.09661 
361.144775 1.153319 
361.181427 6.136406 
361.216888 8.846007 
361.238037 1.872678 
361.320923 0.876489 
361.365265 0.934262 
362.101685 0.951546 
362.186493 0.362794 
362.239227 1.22119 
362.267029 0.128861 
362.32547 0.103869 
363.086792 3.446282 
363.161743 100.0 
363.197601 7.146827 
369.005035 0.544696 
369.836273 25.602468 
370.83786 1.733532 
371.839203 0.122818 
378.848175 0.106459 
383.852234 0.55983 
387.84668 7.159376 
388.849121 0.6655 
END IONS

