BEGIN IONS
PEPMASS=120.077
CHARGE=1+
COMPOUNDNAME=CYCLOSERINE
LIBRARYQUALITY=3
SMILES=N/A
INCHIKEY=DYDCUQKUCUHJBH-UWTATZPHSA-N
INCHI=InChI=1S/C3H6N2O2/c4-2-1-7-5-3(2)6/h2H,1,4H2,(H,5,6)/t2-/m1/s1
MSLEVEL=2
SOURCE_INSTRUMENT=N/A-ESI-QFT
FILENAME=library_mgf.mgf
SEQ=*..*
IONMODE=positive
ORGANISM=MONA
NAME=CYCLOSERINE [M+NH4]+
PI=MoNA
DATACOLLECTOR=MoNA:VF-NPL-QEHF027825
PUBMED=N/A
SUBMITUSER=mwang87
TAGS=
SPECTRUMID=CCMSLIB00004721406
SCANS=27825
50.222145 0.026985 
50.500473 0.196257 
50.614258 0.136954 
50.766148 0.109424 
51.176277 0.142928 
51.580685 0.177858 
51.597385 0.159216 
52.089928 0.034074 
52.40411 0.159165 
52.637035 0.146696 
52.716442 0.14591 
52.838909 0.13181 
52.993958 0.144242 
53.508064 0.163209 
54.081028 0.029006 
54.220001 0.161292 
55.018108 0.028429 
55.039818 0.145539 
55.05452 0.037144 
56.049744 0.528614 
56.320969 0.188043 
57.045013 0.078831 
57.783096 0.179408 
57.935028 0.120108 
58.021946 0.18651 
58.028984 100.0 
58.065384 3.398356 
59.032291 0.084027 
59.073162 1.371085 
60.001713 0.172593 
60.044609 6.879646 
60.398792 0.029424 
60.730721 0.030913 
61.01086 0.170127 
61.280052 0.156213 
62.012897 0.1622 
62.463921 0.12522 
64.035942 0.181717 
64.057655 0.160583 
65.916679 0.155914 
65.977997 0.116344 
66.033958 0.140914 
66.885551 0.167704 
67.105171 0.154041 
67.483627 0.137876 
67.557007 0.029502 
67.563812 0.167299 
68.068909 0.143262 
68.446358 0.115687 
68.998627 0.028975 
69.881332 0.13945 
70.028831 1.583112 
70.190613 0.034207 
70.206108 0.182059 
70.332001 0.154641 
70.846611 0.141167 
71.036674 0.04103 
71.258499 0.140036 
71.528931 0.154988 
72.080826 0.728983 
73.028442 1.823398 
73.246399 0.181228 
73.510895 0.163612 
74.02124 0.058916 
74.023636 23.867367 
74.060066 0.172426 
74.586472 0.165617 
75.026978 0.147648 
75.042587 0.156726 
75.05529 50.735809 
75.425735 0.121838 
76.058548 0.043053 
78.684204 0.026092 
79.054237 0.034836 
79.246262 0.142027 
80.216782 0.175337 
80.516594 0.158157 
80.596626 0.188188 
80.897324 0.143011 
81.099426 0.175435 
84.535255 0.14575 
85.03997 0.030858 
85.906242 0.167297 
86.096413 0.549863 
86.352295 0.130231 
86.68924 0.147562 
86.808952 0.172812 
87.069794 0.037861 
88.032921 0.152715 
88.039291 13.738112 
88.582664 0.154332 
89.047096 0.402366 
89.24678 0.027876 
90.00666 0.135861 
90.021233 0.031728 
90.85334 0.159449 
90.890236 0.170001 
91.054146 2.028918 
92.992935 0.031711 
93.044693 4.862408 
93.069931 0.094414 
93.902466 0.028262 
94.867783 0.205274 
95.028313 0.142421 
95.049126 0.034682 
95.372437 0.163708 
96.011101 14.396158 
96.995155 0.067177 
97.010803 0.361209 
97.727547 0.146909 
98.433205 0.168007 
98.817017 0.177026 
99.84227 0.186733 
100.00074 1.038271 
100.021355 0.799752 
100.112045 0.125116 
100.504654 4.986758 
101.622124 0.031835 
101.997993 0.15719 
102.036942 0.741076 
102.091248 0.034605 
103.054138 0.241804 
104.034225 0.250991 
104.057922 0.176664 
104.228294 0.177988 
104.409462 0.2121 
106.22496 0.029916 
106.347183 0.152604 
107.369781 0.144279 
107.51252 0.040814 
108.810623 0.180387 
111.1129 0.122936 
112.319313 0.164782 
115.275352 0.196761 
116.153534 0.141305 
116.520889 0.186191 
118.03199 0.045506 
118.086121 1.20318 
118.122849 0.031144 
119.060341 0.036818 
120.047523 22.299473 
120.059052 0.157893 
120.080948 0.213918 
121.039597 1.22394 
121.046982 0.281068 
121.050911 0.054524 
121.060684 0.18471 
122.044479 0.036359 
123.089142 0.204183 
123.952904 0.150607 
125.947639 0.184586 
126.665779 0.036063 
128.021484 0.034573 
128.944595 0.132273 
131.39769 0.159645 
139.631042 0.110759 
END IONS

