BEGIN IONS
PEPMASS=279.155
CHARGE=1+
COMPOUNDNAME=Lotaustralin
LIBRARYQUALITY=3
SMILES=N/A
INCHIKEY=WEWBWVMTOYUPHH-GXUZYPEDSA-N
INCHI=InChI=1S/C11H19NO6/c1-3-11(2,5-12)18-10-9(16)8(15)7(14)6(4-13)17-10/h6-10,13-16H,3-4H2,1-2H3/t6-,7-,8+,9-,10+,11?/m1/s1
MSLEVEL=2
SOURCE_INSTRUMENT=N/A-ESI-QFT
FILENAME=library_mgf.mgf
SEQ=*..*
IONMODE=positive
ORGANISM=MONA
NAME=Lotaustralin [M+NH4]+
PI=MoNA
DATACOLLECTOR=MoNA:VF-NPL-QEHF007871
PUBMED=N/A
SUBMITUSER=mwang87
TAGS=
SPECTRUMID=CCMSLIB00004698934
SCANS=7871
50.694191 0.05892 
51.06955 0.04535 
52.40329 0.055812 
53.039349 1.615588 
53.391476 0.134719 
54.112255 0.047951 
54.221546 0.062314 
54.285759 0.057689 
55.018581 3.541421 
55.055004 7.97331 
56.050301 0.167631 
56.39695 0.045346 
56.965549 4.894105 
57.034245 6.151958 
57.070633 17.190367 
57.094482 0.095719 
58.06588 0.301719 
58.073982 0.370733 
59.049858 2.214518 
59.130032 0.060586 
59.134182 0.048793 
59.19521 0.048063 
59.762878 0.260376 
61.011383 25.261873 
61.029137 11.639504 
62.010792 0.107057 
62.014751 1.113695 
62.019234 0.460404 
62.060738 0.101513 
62.982559 0.120437 
63.007168 4.638259 
63.027023 0.528245 
63.423252 0.223979 
67.054916 13.965938 
67.209267 0.068624 
67.32206 0.065331 
68.058243 0.41879 
68.795311 0.05119 
69.034187 18.497648 
69.070564 8.683977 
69.242767 0.062768 
70.014656 0.10494 
70.034569 0.050619 
70.037445 0.081521 
70.065834 1.332095 
70.476547 0.0502 
71.047813 0.078295 
71.049789 4.651687 
71.086182 12.937811 
72.04496 0.145501 
72.081406 0.368458 
72.089485 0.398045 
73.029053 6.437233 
73.047447 2.929341 
73.06543 12.870964 
73.205521 0.28208 
74.060707 0.235869 
74.877144 0.122696 
74.976166 0.056376 
75.296028 0.048458 
76.118652 0.044921 
76.541458 0.056999 
77.745659 0.239037 
78.013794 0.05379 
78.859688 0.131163 
79.021805 5.211029 
79.05481 4.416141 
80.050369 0.054362 
80.058334 0.152243 
80.560211 0.050907 
80.568466 0.044448 
80.713654 0.052441 
81.034081 7.542378 
81.070435 18.259605 
81.07299 0.086517 
82.037422 0.06092 
82.06575 0.071638 
82.07373 0.399431 
83.01329 0.123173 
83.049744 1.479889 
83.086075 5.315886 
84.044724 0.086017 
84.064018 0.044769 
84.081352 0.237838 
84.960213 0.375318 
85.028954 100.0 
85.065315 0.6157 
85.10173 5.43502 
86.032249 2.913009 
86.060516 0.653494 
86.096878 0.184861 
86.10498 0.084292 
86.215469 0.069187 
87.044586 6.169553 
87.301857 0.051336 
87.853989 0.07866 
87.898636 0.05362 
88.07621 0.498472 
88.555023 0.12816 
89.056992 0.072744 
89.060234 14.295779 
90.063538 0.270802 
91.039482 5.480549 
91.054718 2.708228 
91.057785 10.300388 
91.064713 0.057043 
93.070351 7.453225 
94.065567 0.101516 
94.944283 0.076853 
95.049576 1.023436 
95.085953 16.319227 
96.089294 0.362272 
97.028824 25.63295 
97.065231 1.670056 
97.101601 1.959421 
97.368462 0.049765 
98.032143 0.492682 
98.06041 1.78276 
98.09684 0.481946 
98.975777 6.859543 
99.044464 6.630523 
99.080795 0.547004 
100.075989 0.94855 
101.003365 0.048091 
101.023689 0.325917 
101.060158 0.138539 
102.055664 0.057243 
103.039314 0.235698 
104.086121 0.06873 
104.309418 0.094349 
104.992699 0.102588 
105.070213 2.626528 
105.918434 0.054862 
106.086456 0.084225 
107.049454 0.960413 
107.070618 0.08737 
107.085846 6.6639 
108.044838 0.069376 
108.089226 0.180574 
109.028694 8.64236 
109.064972 0.608077 
109.101494 8.032142 
109.778259 0.054039 
109.887634 0.073226 
109.967415 0.083923 
110.032112 0.080104 
110.105682 0.057363 
110.92086 0.669523 
110.975639 1.14232 
111.044411 0.073743 
111.080688 0.334139 
111.117233 0.080407 
112.075989 0.071748 
114.091576 0.240982 
115.039246 0.327218 
115.649452 0.278637 
116.005432 0.156563 
116.070801 0.407437 
116.094841 0.262821 
116.107414 0.060262 
116.986137 6.232913 
117.069931 0.658912 
117.10244 1.24027 
118.086502 0.165317 
118.115547 0.07145 
119.00174 0.076217 
119.017998 0.087026 
119.085678 3.806761 
119.824898 0.053701 
120.081009 0.591556 
121.065041 0.370742 
121.101387 4.969465 
123.080437 0.907165 
123.116974 2.277386 
123.928711 3.286828 
125.096024 0.070865 
126.933853 0.259263 
127.034126 0.077819 
127.039101 18.439487 
127.07547 0.3379 
128.042358 0.432025 
128.070541 0.176168 
128.106796 0.055539 
128.933594 1.760068 
128.986023 3.226133 
129.268097 0.05553 
130.939163 0.089625 
131.001633 1.446846 
131.085678 1.212916 
133.065216 0.063988 
133.101212 2.490433 
134.05954 0.064566 
134.096176 0.415167 
134.10498 0.080791 
134.978622 0.345533 
134.99649 4.03361 
135.043915 0.061497 
135.080475 0.847162 
135.116882 3.348792 
136.075684 0.185934 
136.112213 0.354863 
136.920197 1.667661 
137.01181 0.815307 
137.059738 0.176884 
137.096237 0.305022 
137.132355 0.248177 
138.012451 0.123517 
138.915634 21.092848 
139.008774 0.180496 
139.111923 0.052964 
139.917114 0.069039 
139.923431 6.824944 
140.322006 0.054118 
140.912842 2.210336 
141.090714 0.054993 
141.920715 0.264639 
141.939072 0.287774 
142.948624 0.055736 
143.001572 2.295709 
145.049576 8.748392 
145.064285 0.249707 
145.101166 1.234485 
146.022629 0.052637 
146.996536 5.141701 
147.032806 0.205358 
147.044189 0.063286 
147.080521 0.082686 
147.11676 1.005933 
148.075974 0.050281 
149.012253 6.035612 
149.023224 12.215097 
149.095871 0.458166 
149.132553 1.056682 
150.026291 0.232322 
150.055084 0.065145 
151.149261 0.049504 
151.943665 1.493524 
151.958817 0.056473 
152.106659 0.158898 
152.144852 0.051521 
152.989471 1.005072 
153.006851 0.064037 
153.01825 0.520481 
153.090866 0.054508 
153.932571 0.312018 
153.939072 21.121639 
154.027145 0.116089 
154.930618 1.069548 
154.938965 0.065952 
155.022308 0.176693 
155.046677 0.095471 
155.626266 0.267564 
155.686081 0.098657 
155.936142 2.165112 
155.954727 1.480763 
156.022827 0.078664 
156.138412 0.759957 
156.926208 13.872312 
156.944168 1.043892 
156.965439 1.892412 
157.0186 0.367025 
157.064621 0.084465 
157.415863 0.05633 
157.925278 0.064215 
157.952042 1.560852 
158.296555 0.237332 
158.893707 0.079921 
158.923172 0.994539 
158.944138 3.188176 
158.953506 11.227141 
158.9617 1.014185 
158.996475 2.474509 
159.116653 0.450568 
159.952011 3.544383 
160.020599 0.054678 
160.951599 4.266192 
161.01207 4.153828 
161.059875 0.069106 
161.095596 0.129054 
161.132462 0.621589 
162.990524 0.245759 
163.027847 0.369095 
163.14801 0.255068 
163.976974 0.154817 
165.006882 0.271953 
165.069565 0.06584 
166.086349 0.116062 
167.022705 1.58469 
168.065826 0.055785 
168.944351 0.063733 
169.065247 0.064303 
169.62207 0.15759 
169.953995 1.687595 
170.944275 0.082291 
170.952011 0.154324 
170.99614 2.359844 
171.912842 0.164655 
171.949631 20.875038 
172.94902 0.514187 
172.975464 1.024942 
173.058548 0.060553 
173.095566 0.05716 
173.132431 0.1515 
173.94693 2.637722 
173.955109 0.140482 
173.977356 0.05919 
174.149002 2.021298 
174.831253 0.05576 
174.936676 0.52576 
174.954681 0.915549 
174.975449 2.825055 
175.027588 0.398431 
176.954666 2.801114 
177.007065 2.202984 
177.164337 0.064551 
178.627243 1.149734 
179.022598 0.244931 
179.129074 0.063791 
180.961639 0.080916 
182.08197 0.068623 
183.033661 0.055432 
185.048615 0.177154 
185.962646 0.055623 
186.95459 0.08616 
187.148422 0.094629 
187.632141 0.090732 
187.944489 0.668115 
188.954803 0.849081 
188.96312 0.063958 
189.006821 1.627965 
189.043411 0.219238 
189.941696 0.38659 
191.109665 0.141508 
191.127945 0.250963 
191.94136 1.216617 
194.999695 0.185943 
195.017838 0.067531 
195.362411 0.266035 
195.955795 0.284382 
197.766602 0.072085 
199.011627 0.258051 
199.037659 0.077849 
200.955292 2.381503 
201.007217 1.298047 
201.043335 0.707353 
202.95256 0.235711 
203.058731 0.136921 
203.202347 0.141041 
203.940552 0.261616 
205.987518 1.771172 
206.977463 0.055346 
207.080124 0.218815 
209.015274 0.068143 
209.096466 0.057318 
215.520386 0.62202 
215.530273 2.162046 
215.540314 0.406579 
216.965042 1.168665 
217.942459 3.224846 
217.96785 0.397485 
218.965347 4.934579 
219.017517 6.291791 
219.055771 1.048409 
219.079132 0.061097 
219.174149 2.860429 
220.169357 2.399455 
220.962784 0.148509 
222.89859 4.74943 
223.075241 0.256345 
225.042984 0.564231 
229.002289 0.0783 
235.075165 0.536044 
235.953613 0.074137 
236.08284 0.342829 
236.988953 0.047897 
237.028061 11.04471 
237.053391 0.172533 
237.0905 0.058693 
237.916153 0.091098 
240.909103 9.825035 
241.910431 0.072236 
243.064438 0.101529 
243.08963 0.076796 
243.211288 0.061911 
246.02887 0.095167 
247.011322 0.15967 
249.05481 0.077158 
249.090332 0.065638 
250.062393 0.051884 
250.096146 0.120204 
251.070023 0.576528 
251.106369 0.18003 
253.084793 0.278837 
255.038132 0.347041 
260.201019 1.319925 
260.236633 0.060489 
263.069946 0.545923 
264.039551 0.328717 
264.077362 0.409298 
265.020111 0.66005 
265.049286 0.291066 
265.085358 1.22667 
266.056854 0.246569 
266.998932 14.121338 
268.977661 0.206082 
269.014557 0.213451 
277.08847 0.055299 
277.228149 0.081143 
278.092957 0.187113 
278.174408 0.301542 
278.211456 1.331463 
278.247681 0.231193 
279.064728 0.64985 
279.100372 0.506593 
279.204712 2.71181 
280.071075 0.182696 
280.153595 0.289901 
280.190094 0.260199 
280.207825 0.232589 
280.226562 0.139261 
281.050598 1.086562 
281.080475 0.788077 
281.911926 0.399453 
283.030182 33.899029 
284.565125 0.076332 
285.009644 0.12545 
297.062988 0.267255 
299.061401 23.590239 
304.176147 0.31437 
END IONS

