BEGIN IONS
PEPMASS=1460.71
CHARGE=1+
COMPOUNDNAME=BACITRACIN
LIBRARYQUALITY=3
SMILES=N/A
INCHIKEY=CLKOFPXJLQSYAH-NVOBBBONSA-N
INCHI=InChI=1S/C66H103N17O16S/c1-9-35(6)52(69)66-81-48(32-100-66)63(97)76-43(26-34(4)5)59(93)74-42(22-23-50(85)86)58(92)83-53(36(7)10-2)64(98)75-40-20-15-16-25-71-55(89)46(29-49(68)84)78-62(96)47(30-51(87)88)79-61(95)45(28-39-31-70-33-72-39)77-60(94)44(27-38-18-13-12-14-19-38)80-65(99)54(37(8)11-3)82-57(91)41(21-17-24-67)73-56(40)90/h12-14,18-19,31,33-37,40-48,52-54H,9-11,15-17,20-30,32,67,69H2,1-8H3,(H2,68,84)(H,70,72)(H,71,89)(H,73,90)(H,74,93)(H,75,98)(H,76,97)(H,77,94)(H,78,96)(H,79,95)(H,80,99)(H,82,91)(H,83,92)(H,85,86)(H,87,88)/t35?,36?,37?,40-,41+,42+,43-,44+,45-,46-,47+,48?,52?,53-,54-/m0/s1
MSLEVEL=2
SOURCE_INSTRUMENT=N/A-ESI-QFT
FILENAME=library_mgf.mgf
SEQ=*..*
IONMODE=positive
ORGANISM=MONA
NAME=BACITRACIN [M+K]+
PI=MoNA
DATACOLLECTOR=MoNA:VF-NPL-QEHF027777
PUBMED=N/A
SUBMITUSER=mwang87
TAGS=
SPECTRUMID=CCMSLIB00004721358
SCANS=27777
101.016899 0.13885 
101.041954 0.062938 
101.107422 0.103824 
101.963745 0.04105 
102.000961 0.009153 
102.054962 3.37404 
102.09137 0.048452 
103.054253 2.528052 
103.058022 0.173041 
104.016479 0.021401 
104.049538 0.027142 
104.057632 0.17789 
105.044769 0.070207 
105.069862 0.809006 
106.052696 0.027579 
106.065117 0.400108 
106.073303 0.010308 
107.060387 0.815756 
107.07283 0.017738 
107.993553 0.040195 
108.044395 0.298038 
108.055611 0.847502 
108.068176 0.135408 
108.080811 0.936859 
109.039764 0.318248 
109.063583 0.800062 
109.071945 0.008806 
109.076096 1.996266 
110.02404 0.353372 
110.071167 100.0 
110.095772 0.907766 
110.388107 0.010381 
111.026154 0.033457 
111.055222 1.138952 
111.063713 0.010059 
111.068199 1.028511 
111.074501 5.255412 
111.091537 2.811751 
111.095581 0.033469 
111.099495 0.027408 
111.9851 0.108866 
112.021461 0.289811 
112.039238 0.018172 
112.050453 0.183031 
112.058502 0.008637 
112.075531 1.275281 
112.086945 0.292359 
112.095009 0.110355 
112.112 0.264166 
113.016747 0.047273 
113.034508 0.20249 
113.041962 0.030322 
113.058449 0.008265 
113.070816 0.502715 
113.107254 0.501028 
113.963776 0.008896 
114.00103 0.022341 
114.054977 0.132257 
114.066193 0.071157 
114.091331 0.322831 
114.102455 0.117025 
115.031998 0.015532 
115.050186 0.113396 
115.054192 1.035212 
115.086563 4.282146 
116.016457 0.304012 
116.052994 0.108595 
116.057411 0.031435 
116.070541 0.044028 
116.089844 0.204086 
116.622894 0.006244 
117.057243 0.187976 
117.069817 0.296792 
117.958473 0.066017 
117.977997 0.007682 
118.061066 0.006623 
118.06488 0.57242 
119.060341 0.466927 
119.072975 0.107007 
119.085419 0.00811 
120.044724 0.028394 
120.050789 0.007574 
120.055626 2.241257 
120.080765 13.385567 
121.039635 1.955621 
121.058914 0.096328 
121.063484 0.139922 
121.076073 0.785058 
121.084007 1.087465 
121.088463 0.095848 
122.023529 0.019065 
122.0429 0.049997 
122.059998 0.329224 
122.071213 1.727581 
122.079239 0.009821 
122.083733 0.360888 
122.091927 0.008498 
122.096405 0.478219 
123.055222 1.623391 
123.063019 0.008215 
123.074448 0.039574 
123.079231 0.065518 
123.091621 1.258893 
124.021515 0.031212 
124.039291 0.378443 
124.050537 0.232015 
124.058701 0.029681 
124.075737 0.400938 
124.086876 0.856175 
124.094925 0.041288 
124.099434 0.017623 
124.11219 0.47714 
125.01693 0.017525 
125.034584 0.294847 
125.04203 0.074275 
125.070915 0.771965 
125.095657 0.006814 
125.107315 0.674395 
126.037132 0.357075 
126.054871 0.027796 
126.066154 0.063511 
126.091202 0.319337 
126.102592 0.026347 
126.110558 0.010734 
126.127182 0.009017 
127.032478 0.039196 
127.050163 0.375918 
127.05748 0.021777 
127.086571 0.503701 
127.122856 0.328404 
127.979263 0.099386 
128.01619 0.006332 
128.052979 0.095023 
128.062164 0.008519 
128.070602 0.074735 
128.118408 0.008836 
128.1259 0.0065 
129.011658 0.263562 
129.065536 0.526152 
129.070282 0.086907 
129.102142 4.032362 
129.475021 0.006553 
129.995605 0.99349 
130.049713 0.230117 
130.065033 1.559342 
130.086197 0.111943 
130.099426 0.006547 
130.105484 0.208871 
131.027283 0.578271 
131.049103 0.315875 
131.060333 0.046217 
131.068283 0.089742 
131.073135 0.011741 
131.974289 0.049222 
131.993149 0.009723 
132.054031 0.019792 
132.068253 0.029124 
132.080643 0.847585 
132.631119 0.007623 
133.040298 0.00711 
133.06337 1.42822 
133.075958 0.39169 
133.083923 0.019195 
134.059952 0.093819 
134.066422 0.040346 
134.071274 0.670362 
134.083862 0.050189 
134.096283 0.268003 
135.055176 0.266875 
135.074158 0.008819 
135.079285 0.035775 
135.091553 2.368293 
136.021469 0.018623 
136.039368 0.108243 
136.050552 0.963262 
136.055984 0.007244 
136.058334 0.006129 
136.063446 0.008306 
136.075699 2.986106 
136.086884 5.568771 
136.09491 0.03354 
136.099396 0.229794 
136.111984 0.43574 
136.264008 0.006479 
137.029343 0.029836 
137.034348 0.020507 
137.053879 0.016368 
137.070969 0.901979 
137.082443 0.228745 
137.090164 0.342807 
137.095245 0.054216 
137.101486 0.01013 
137.107269 2.415634 
138.037155 0.112086 
138.054962 0.321645 
138.066162 1.850062 
138.091217 0.811024 
138.102493 0.38859 
138.110168 0.093956 
138.115341 0.019044 
138.12764 1.281055 
139.032349 0.028465 
139.044617 0.006787 
139.050171 0.388752 
139.06958 0.011239 
139.086533 6.432198 
139.092728 0.089142 
139.122879 0.411826 
139.13089 0.024722 
139.978836 0.029773 
140.001434 0.026914 
140.016479 0.011369 
140.027985 0.017617 
140.034058 0.148637 
140.04599 0.014797 
140.052811 0.403714 
140.070602 0.048172 
140.082596 0.099361 
140.089798 0.466307 
140.106873 0.67577 
140.117935 0.162634 
140.143188 0.117347 
140.974579 0.194377 
141.011658 0.497483 
141.04805 0.035307 
141.065475 0.10265 
141.102158 1.006781 
141.995148 0.042554 
142.043228 0.052812 
142.061142 0.138163 
142.068451 0.365085 
142.086548 0.008219 
142.097519 0.066889 
142.978714 0.007117 
143.027283 0.473506 
143.045044 0.830939 
143.064026 0.008895 
143.072891 0.057937 
143.081268 0.070928 
143.974091 0.303535 
144.011246 0.018552 
144.055908 0.009948 
144.08049 0.409213 
144.969193 0.007378 
145.006454 0.194862 
145.075912 0.258314 
145.990021 0.079414 
146.012268 0.035215 
146.060028 0.207341 
146.071228 0.467299 
146.083771 0.039471 
146.096268 0.242933 
146.128769 0.049734 
147.055222 0.13631 
147.07933 0.023019 
147.091614 0.588762 
147.097809 0.008468 
147.806198 0.007637 
148.050461 0.874196 
148.075516 0.152937 
148.086777 0.652931 
148.099548 0.090129 
148.111938 0.112402 
149.034515 0.19427 
149.04744 0.008724 
149.058792 0.010035 
149.070969 0.479305 
149.082199 0.145836 
149.09523 0.0448 
149.107239 0.612488 
150.018463 0.14088 
150.03714 0.079451 
150.054855 0.049108 
150.066116 0.423278 
150.091202 0.164843 
150.102554 0.587739 
150.115356 0.016315 
150.12767 0.103561 
151.032486 0.127531 
151.050125 0.118701 
151.086517 0.804259 
151.110718 0.03935 
151.12294 0.646888 
152.016312 0.155994 
152.026993 0.007301 
152.034225 0.033457 
152.046371 0.025802 
152.052689 0.436255 
152.070709 0.052079 
152.081711 0.33068 
152.089386 0.008022 
152.10704 0.50238 
152.11821 0.424775 
152.124786 0.008758 
152.131149 0.054918 
152.143326 0.631374 
152.974426 0.165394 
153.012131 0.007978 
153.047943 0.08657 
153.065735 0.156505 
153.102188 1.242843 
153.120026 0.007815 
153.138565 0.197347 
153.145584 0.015891 
153.994843 0.030909 
154.031876 0.124059 
154.049652 0.015762 
154.061722 0.01091 
154.068329 0.780893 
154.086029 0.143092 
154.097458 0.034129 
154.10527 0.044529 
154.133835 0.212319 
154.158813 0.266061 
154.990097 0.353322 
155.027359 0.015981 
155.063736 0.092758 
155.071472 0.019183 
155.081329 0.103481 
155.092606 0.369364 
155.117737 1.672722 
155.973999 0.102704 
156.010406 0.101602 
156.032806 0.009173 
156.064804 0.020071 
156.076141 0.083953 
156.081299 0.054215 
156.101852 0.104817 
156.113174 0.851334 
156.120422 0.109566 
156.989883 0.02703 
157.006042 0.069084 
157.060806 0.076488 
157.075043 0.007306 
157.079391 0.019132 
157.096985 0.178214 
157.989716 0.081925 
157.99855 0.008292 
158.011749 0.113969 
158.025864 0.019204 
158.063583 0.007194 
158.096436 0.060435 
158.985123 0.049094 
159.021469 0.054473 
159.091507 0.651968 
160.004913 0.020203 
160.027771 0.008713 
160.075531 0.081013 
160.086868 0.39107 
160.111404 0.015324 
160.987045 0.007185 
161.07077 0.069114 
161.082016 0.273257 
161.094803 0.062843 
161.107132 0.37025 
161.984329 0.03523 
162.06604 0.961038 
162.090988 0.05982 
162.102432 2.859272 
162.114548 0.009842 
162.127472 0.023268 
163.050003 0.098626 
163.061462 0.029647 
163.086411 4.578282 
163.098129 0.25566 
163.105072 0.139679 
163.111328 0.016358 
163.122803 0.87091 
164.04541 0.336256 
164.070328 2.100123 
164.081772 1.449469 
164.089355 0.305966 
164.095184 0.102901 
164.106781 0.099136 
164.118256 1.096655 
164.125397 0.025007 
164.143234 0.017179 
165.028854 0.007102 
165.048065 0.113485 
165.065659 0.059067 
165.077209 1.564373 
165.084778 0.068938 
165.102188 1.614212 
165.113663 0.062197 
165.126343 0.062571 
165.138474 0.916673 
166.006088 0.068508 
166.028824 0.030179 
166.043564 0.019776 
166.06102 2.721824 
166.086441 0.164304 
166.097351 0.394521 
166.105133 0.108006 
166.122528 0.26217 
166.133835 1.075534 
166.141205 0.057055 
166.990189 0.170764 
167.044907 0.468255 
167.064163 0.517898 
167.073395 0.091669 
167.081146 0.679274 
167.117844 0.600174 
167.136551 0.009245 
167.142487 0.009435 
167.154099 0.214331 
168.029343 0.010953 
168.047668 0.221323 
168.066101 0.009638 
168.080627 0.176481 
168.101669 0.086822 
168.112991 0.09468 
168.120651 0.009182 
168.149399 0.164715 
168.969406 0.352473 
169.005844 0.076489 
169.02774 0.041165 
169.04248 0.017872 
169.060165 0.049637 
169.079193 0.439783 
169.096817 0.228531 
169.133347 0.327177 
169.989349 0.092717 
170.026321 0.064661 
170.055695 0.021053 
170.063232 0.115119 
170.087601 0.00963 
170.096176 0.089362 
170.117416 0.337514 
170.128464 0.007608 
170.985092 0.157322 
171.007401 0.0268 
171.021347 0.240308 
171.04393 0.144616 
171.066162 0.050384 
171.092361 0.155658 
171.991684 0.007668 
172.005264 0.085188 
172.027374 0.01036 
172.042877 0.009263 
172.050064 0.111141 
172.078827 0.545524 
172.0867 0.142047 
172.111877 0.152483 
173.000748 0.070665 
173.037064 0.070793 
173.070786 0.009115 
173.082047 0.049432 
173.107162 0.061246 
173.984039 0.10765 
174.006165 0.007012 
174.020844 0.037467 
174.043518 0.03885 
174.066025 0.206393 
174.0905 0.009446 
174.102478 0.309525 
174.127487 0.020087 
175.000366 0.007873 
175.086411 0.620346 
175.097946 0.069474 
175.110504 0.010482 
175.122864 0.238436 
176.069427 0.119199 
176.081665 0.346855 
176.118088 1.77796 
177.047821 0.076633 
177.065857 0.074856 
177.076355 0.019649 
177.102081 0.271015 
177.11293 0.008801 
177.120956 0.032322 
177.125549 0.017929 
177.13858 0.468043 
178.028931 0.01005 
178.061646 0.072692 
178.085709 0.009107 
178.097366 0.434233 
178.133804 1.848244 
178.141922 0.044941 
179.063461 0.18685 
179.081329 0.302535 
179.092621 0.54751 
179.117828 0.851847 
179.126541 0.028815 
179.136795 0.063359 
179.154205 0.432075 
180.076691 0.380885 
180.112991 1.274789 
180.121338 0.075693 
180.137039 0.00851 
180.149353 0.583681 
180.992752 0.008825 
181.005783 0.09496 
181.027863 0.02934 
181.042801 0.010467 
181.060684 0.007484 
181.071655 0.010037 
181.079239 0.354368 
181.097046 2.980086 
181.108093 2.857351 
181.116516 0.106796 
181.133194 0.717136 
181.16954 0.021778 
182.000916 0.419681 
182.055511 0.011683 
182.081802 0.032563 
182.092209 0.016939 
182.100388 0.221612 
182.111664 0.137032 
182.128723 0.49772 
182.136749 0.023328 
182.156296 0.009387 
182.165009 0.770042 
182.98494 0.08328 
183.021301 0.14996 
183.043655 0.100574 
183.058655 0.0772 
183.076172 0.016947 
183.091949 0.259107 
183.112701 0.446723 
183.149185 0.891465 
183.168411 0.016968 
184.00499 0.095463 
184.016479 0.016861 
184.042542 0.393835 
184.071503 0.058448 
184.096588 0.009242 
184.109283 0.034104 
185.000259 0.291571 
185.022705 0.05732 
185.037186 0.058494 
185.055389 1.05885 
185.073975 0.160484 
185.091858 0.040391 
185.107162 0.216959 
185.972321 0.111581 
185.985031 0.013644 
185.996445 0.008125 
186.020981 0.184849 
186.042557 0.008085 
186.058258 0.320641 
186.091263 0.042324 
186.102081 0.057449 
186.127502 0.314515 
186.979858 0.071794 
187.002106 0.007731 
187.016205 0.368802 
187.038162 0.019401 
187.076889 0.036756 
187.088333 0.648899 
187.098358 0.022113 
187.122269 0.020432 
187.9991 0.028939 
188.059723 0.007316 
188.081406 0.018933 
188.092072 0.00791 
188.117935 0.353454 
188.143188 0.314989 
188.98085 0.008013 
189.018341 0.010802 
189.032379 0.011591 
189.054596 0.066611 
189.067261 0.022574 
189.07695 0.941659 
189.085602 0.013471 
189.103424 0.356108 
189.113449 0.286931 
189.124924 0.013272 
189.138443 0.088235 
190.016159 0.009551 
190.060959 1.675333 
190.080688 0.008372 
190.097336 0.486904 
190.106812 0.05371 
190.133713 1.399503 
190.142319 0.029581 
190.783401 0.007116 
191.064743 0.11498 
191.081268 0.777463 
191.092468 1.385138 
191.102219 0.01063 
191.117813 1.124892 
191.127838 0.059859 
191.139297 0.060945 
191.153976 0.122149 
191.985168 0.12649 
192.068268 0.009179 
192.07666 0.148957 
192.08638 0.097267 
192.096268 0.010106 
192.112823 0.513906 
192.121552 0.083387 
192.149292 2.567264 
192.1586 0.038018 
193.042206 0.015931 
193.071732 0.444317 
193.080612 0.018294 
193.097 0.355636 
193.107056 0.008131 
193.117554 0.011671 
193.133514 1.507595 
193.153259 0.254951 
193.169357 0.02404 
194.000427 0.048036 
194.024002 0.018651 
194.057816 0.008927 
194.074249 0.012633 
194.092102 0.46803 
194.128448 0.274206 
194.137222 0.083126 
194.165009 0.270732 
194.973434 0.007941 
194.984467 0.016909 
195.021393 0.052273 
195.039993 0.227711 
195.058456 0.072413 
195.075943 0.035308 
195.091415 0.752925 
195.112762 0.592099 
195.121613 0.018801 
195.149033 0.131498 
196.042282 0.04455 
196.089661 0.270922 
196.107742 0.152407 
196.116241 0.010286 
196.144241 0.532057 
196.180771 0.109747 
197.000687 0.083548 
197.037491 0.016681 
197.059052 0.030867 
197.074203 0.961148 
197.091995 0.089469 
197.108032 0.185415 
197.128296 0.531097 
197.164642 0.040486 
198.020309 0.010735 
198.031647 0.01099 
198.058243 1.718185 
198.077042 0.014268 
198.104797 0.01114 
198.113495 0.008688 
198.123154 0.619821 
198.97876 0.113941 
198.988541 0.329026 
198.998306 0.008085 
199.01622 0.369536 
199.038452 0.081524 
199.053162 0.081832 
199.06192 0.083385 
199.072937 0.010708 
199.089859 3.297552 
199.106247 0.075615 
199.125549 0.017055 
199.98645 0.086736 
199.999512 0.007524 
200.037338 0.592553 
200.052948 0.008351 
200.072784 0.050617 
200.093033 0.305662 
200.118271 0.009466 
200.940857 0.010577 
200.9841 0.042027 
200.994812 0.011132 
201.031647 0.247902 
201.054337 0.029178 
201.076508 0.00852 
201.08577 0.051486 
201.102448 0.019229 
201.113174 0.012597 
201.12323 0.067636 
201.137878 0.018722 
202.015137 0.017723 
202.0858 0.007806 
202.097198 0.117357 
202.122299 0.018819 
202.133286 0.05018 
203.0336 0.01005 
203.047287 0.027434 
203.068359 0.007595 
203.081161 0.009332 
203.11879 0.054832 
203.128632 0.539302 
203.154007 0.067621 
204.031052 0.022538 
204.087784 0.072612 
204.112946 0.290744 
204.123413 0.016237 
204.149261 0.430026 
205.096985 0.107425 
205.108047 0.029711 
205.13353 0.084172 
205.144333 0.04529 
205.156036 0.019228 
205.169403 0.011803 
206.092239 0.165771 
206.103317 0.22816 
206.128586 0.59419 
206.164993 2.427974 
206.996201 0.174547 
207.020996 0.017872 
207.058334 0.049675 
207.076736 0.059559 
207.086487 1.028244 
207.11235 0.493178 
207.123779 0.361751 
207.149185 0.410247 
207.159195 0.011224 
207.170334 0.248419 
207.980423 0.065807 
208.016495 0.062831 
208.071381 0.256696 
208.09024 0.114201 
208.107803 1.099016 
208.133881 0.009699 
208.144073 0.67465 
208.180649 0.824338 
209.037079 0.10541 
209.059341 0.163764 
209.074173 0.239629 
209.092331 0.559944 
209.110809 0.189806 
209.128296 0.443754 
209.164764 0.12111 
209.183884 0.034858 
209.985474 0.007472 
209.995804 0.384615 
210.021423 0.009376 
210.031891 0.068098 
210.068939 0.028938 
210.104233 0.062845 
210.123474 0.421671 
210.159943 1.735002 
211.016037 0.232013 
211.036636 0.019952 
211.053009 0.278061 
211.075043 0.071361 
211.089005 0.049205 
211.107346 0.099599 
211.125946 0.098964 
211.143951 0.055346 
211.163269 0.146025 
212.011337 0.365825 
212.036255 0.122021 
212.057617 0.011281 
212.069153 0.010125 
212.085129 0.130986 
212.118088 6.171852 
212.129929 0.043412 
212.994873 0.153734 
213.01622 0.008657 
213.031799 0.220103 
213.051102 0.279711 
213.068909 0.979002 
213.121704 0.801078 
213.138947 0.088064 
214.053024 5.85849 
214.071442 0.054712 
214.099899 0.252123 
214.122528 0.012795 
215.011093 0.182034 
215.056503 0.477751 
215.06813 0.058144 
215.082642 0.105581 
215.093231 0.010637 
215.117737 0.008439 
215.138992 0.670869 
215.15358 0.074021 
216.048706 0.099885 
216.068298 0.01909 
216.112671 0.09714 
216.149048 0.011299 
217.07193 0.902911 
217.097198 0.138094 
217.108261 0.264267 
217.133087 0.045788 
217.144333 0.070683 
218.056274 0.260213 
218.074677 0.031867 
218.091919 0.071986 
218.102905 0.096512 
218.12854 0.251064 
218.164932 0.309262 
219.042572 0.008889 
219.059616 0.009551 
219.112244 0.05797 
219.12323 0.031006 
219.149017 0.094366 
219.159897 0.065306 
219.171783 0.007477 
219.877289 0.040313 
219.88588 0.029909 
220.090683 0.008599 
220.106979 0.313991 
220.133026 0.016454 
220.144165 0.364228 
220.180695 2.690256 
220.192184 0.013809 
221.036163 0.043786 
221.058868 0.024926 
221.076874 0.207544 
221.091202 0.029857 
221.110703 0.026842 
221.128052 0.096879 
221.164429 0.154232 
221.186859 0.501648 
222.004395 0.211442 
222.067383 0.009792 
222.1026 0.522868 
222.123001 0.146664 
222.159363 0.114796 
222.19635 1.770256 
223.037018 0.009355 
223.052383 0.029466 
223.07489 0.178923 
223.087555 0.042586 
223.107101 0.114751 
223.126007 0.275758 
223.180161 0.216454 
223.199753 0.217111 
223.999695 0.020775 
224.0112 0.029424 
224.084656 0.152642 
224.105606 0.013016 
224.11821 1.510912 
224.138977 0.200216 
224.175446 0.299034 
225.031708 0.198591 
225.055023 0.010932 
225.069016 1.003122 
225.097702 0.507224 
225.122391 0.318307 
225.133377 0.013276 
226.027176 0.019387 
226.072281 0.01894 
226.100647 0.022636 
226.118332 0.326254 
226.1548 0.03745 
227.01059 0.051644 
227.047333 0.193993 
227.068848 0.033103 
227.083755 0.073135 
227.153564 0.035918 
228.030411 0.019702 
228.042404 0.10607 
228.065872 0.050561 
228.113052 0.01715 
228.170258 0.082221 
229.027191 0.07842 
229.082596 0.007994 
229.132751 0.054064 
229.144592 0.036697 
230.078018 0.008327 
230.128204 0.025949 
230.164902 0.053126 
231.042755 0.033193 
231.062454 0.030106 
231.123962 0.11273 
231.148865 0.033504 
232.107468 0.170691 
232.119141 0.084105 
232.143799 0.096467 
232.180542 0.169459 
233.011368 0.135991 
233.091721 0.160546 
233.127686 0.075318 
233.139664 0.089451 
233.164505 0.17052 
233.175797 0.013984 
234.031921 0.006792 
234.054794 0.089573 
234.068848 0.017717 
234.098389 0.529847 
234.123444 0.320101 
234.159805 0.415725 
234.196198 0.026143 
235.016251 0.050885 
235.082306 2.384466 
235.103394 0.048142 
235.116943 0.043251 
235.127762 0.009796 
235.143585 0.198092 
235.155167 0.256265 
236.06752 0.370685 
236.085266 0.327275 
236.102402 0.800468 
236.114853 0.014123 
236.117294 0.013538 
236.138977 0.605729 
236.175537 0.216386 
237.031052 0.23772 
237.054123 0.156522 
237.068298 0.142578 
237.089111 0.21946 
237.105209 0.069823 
237.130295 0.03973 
237.142639 0.467804 
237.154633 0.006883 
237.158722 0.0065 
238.026886 0.066733 
238.049683 0.007984 
238.088074 0.010512 
238.10054 0.065066 
238.117569 0.062332 
238.135651 0.108423 
238.154892 0.165631 
239.047348 0.194075 
239.069916 0.086226 
239.08461 0.218144 
239.103043 0.015669 
239.12886 0.413632 
239.140335 0.024892 
239.157822 0.008519 
240.030212 0.019313 
240.042953 0.009964 
240.063766 0.00826 
240.078186 0.007161 
240.112869 0.296526 
240.132904 0.015807 
240.152557 0.314398 
241.026505 0.018653 
241.047501 0.02498 
241.062683 0.089445 
241.084869 0.053591 
241.134094 0.017074 
242.021881 0.009489 
242.093185 0.104106 
243.041901 0.00871 
243.063644 0.009073 
243.087997 0.058048 
243.134979 0.045557 
243.148865 0.367839 
244.03804 0.018865 
244.105804 0.008952 
245.091171 0.008421 
246.075134 0.091218 
246.098053 0.175325 
246.122803 0.07536 
246.159424 0.104977 
247.155289 0.049245 
247.191177 0.009405 
248.070465 0.063486 
248.102234 0.125406 
248.138794 0.124501 
248.175339 0.65164 
249.073822 0.0187 
249.086548 0.009849 
249.116226 0.049884 
249.158966 0.236155 
250.026566 0.032617 
250.063904 0.010354 
250.085144 0.008243 
250.097778 0.15868 
250.118286 0.205627 
250.152802 0.008028 
250.190948 0.185889 
251.047562 0.048638 
251.082123 0.008054 
251.102554 0.008876 
251.121002 0.086515 
252.042648 0.134455 
252.065262 0.107116 
252.078888 0.043021 
252.109177 0.531189 
252.133133 0.043654 
252.152313 0.328987 
252.169373 0.138138 
253.02623 0.058834 
253.048462 0.009043 
253.062546 0.131456 
253.093048 2.216406 
253.116638 0.027759 
253.135925 0.075688 
253.165527 0.299811 
254.023254 0.009333 
254.058029 0.031885 
254.080963 0.041562 
254.095612 0.231242 
254.112686 0.043486 
254.168259 0.857495 
254.99144 0.058684 
255.041367 0.22007 
255.065002 0.04562 
255.098633 0.009135 
255.123444 0.083075 
255.151077 0.022603 
255.17128 0.03146 
256.037354 0.008557 
256.073242 0.008378 
256.099152 0.197876 
257.139496 1.087758 
258.097961 0.072922 
258.143555 0.044662 
258.159058 0.014805 
259.055176 0.012556 
260.101929 0.235779 
260.114685 0.381013 
260.138306 0.063034 
260.176392 0.007769 
261.086243 0.009526 
261.117554 0.008768 
262.027039 0.048087 
262.048035 0.010354 
262.062592 0.011809 
262.092834 0.044937 
262.154449 0.15073 
262.190857 0.068077 
263.047607 0.008481 
263.077484 0.790761 
263.121368 0.039517 
263.150116 0.052173 
264.041992 0.084973 
264.06546 0.024464 
264.080048 0.058912 
264.099976 0.017048 
264.115753 0.135166 
264.134186 0.009753 
264.152252 0.03661 
264.168457 0.033281 
265.025635 0.010376 
265.063263 0.008137 
265.136505 0.391321 
265.163116 0.0192 
266.036865 0.10243 
266.057922 0.019124 
266.080261 0.030011 
266.095062 0.020765 
266.114655 0.040694 
266.132935 0.00663 
266.150055 0.02365 
266.18576 0.017438 
267.041046 0.008692 
267.064392 0.00994 
267.124268 1.900175 
267.150635 0.109669 
268.037842 0.008823 
268.074738 0.032543 
268.107849 2.229463 
268.126312 0.29829 
268.145935 0.110847 
269.041718 0.009322 
269.058044 0.055847 
269.110901 0.316433 
269.127075 0.012476 
270.053009 0.021075 
270.089752 0.018929 
270.114655 0.11049 
270.983276 0.017773 
271.143951 0.301829 
273.134125 0.479879 
274.166504 0.037768 
274.190491 0.05858 
275.149963 0.00942 
275.186401 0.04362 
276.170197 0.103099 
277.110657 0.008151 
277.129272 0.165507 
277.20224 0.009323 
278.058258 0.071294 
278.113129 0.618579 
278.13089 0.224404 
278.147797 0.019269 
279.041748 0.009932 
279.097015 0.03728 
279.117096 0.056016 
280.037048 0.056069 
280.073639 0.152875 
280.096466 0.009735 
280.147614 0.28712 
280.163452 0.028436 
281.089935 0.159408 
281.131653 1.209455 
281.194092 0.020938 
282.053009 0.03384 
282.074524 0.070394 
282.090729 0.042211 
282.111481 0.029416 
282.13446 0.108517 
282.163422 0.453113 
282.983948 0.007869 
283.118652 0.070097 
283.145721 0.034306 
283.166107 0.017178 
284.067871 0.009251 
284.148468 0.027581 
284.178894 0.007243 
284.998627 0.09704 
285.134277 1.791881 
285.162048 0.123479 
286.091705 0.02085 
286.137573 0.26033 
286.153748 0.008441 
288.17041 0.008724 
289.147675 0.007273 
290.091736 0.009199 
290.160492 0.264797 
290.185089 0.008419 
291.143738 0.015538 
291.21756 0.016557 
292.147705 0.398835 
292.164642 0.009332 
293.139404 0.397743 
294.144684 0.076775 
294.163177 0.410521 
294.195923 0.077135 
295.087585 0.008797 
295.118835 0.177792 
295.139465 0.391316 
295.18045 0.007884 
296.050903 0.015936 
296.069092 0.114537 
296.12384 0.199394 
296.141754 0.011532 
297.052582 0.008498 
297.1008 0.008572 
298.049011 0.007824 
298.085083 0.035022 
298.105865 0.011715 
298.157593 0.061146 
300.064301 0.010352 
300.142609 0.017393 
303.181 0.016184 
303.215759 0.010095 
304.10376 1.176514 
305.106201 0.102456 
305.124817 0.009666 
305.160217 0.047843 
305.178345 0.008072 
306.118469 0.025057 
306.161957 0.008362 
307.044647 0.030251 
307.084534 0.007807 
307.191345 0.018639 
308.105042 0.01049 
308.125793 0.01211 
308.178894 0.030289 
309.045898 0.013924 
309.173737 0.281372 
310.042633 0.00864 
310.158295 0.032233 
311.058838 0.01859 
312.153381 0.006327 
313.150116 0.068144 
313.189941 0.098508 
314.079468 0.043707 
316.164581 0.092871 
317.122467 0.007992 
318.485809 0.007413 
319.019562 0.015949 
319.15744 0.009815 
320.177582 0.039762 
321.171844 0.015807 
322.193359 0.021954 
323.136047 0.008339 
324.064941 0.009951 
325.078949 0.009194 
329.071625 0.00777 
332.097992 0.108876 
333.037018 0.011801 
333.191345 0.01733 
334.19458 0.010805 
335.050812 0.007931 
335.186401 0.251962 
336.144684 0.013137 
336.189056 0.00902 
336.210022 0.192151 
337.090332 0.008141 
337.129272 0.023285 
339.045898 0.020316 
342.189056 0.008224 
348.20929 0.033536 
349.094391 0.009688 
349.124298 0.2671 
350.108337 0.093523 
350.133301 0.009176 
350.224091 0.281106 
353.060242 0.077182 
360.095184 0.016515 
361.168579 0.026278 
361.185669 0.010127 
365.124023 0.095077 
369.224548 0.02665 
370.149261 0.127669 
378.246094 0.04507 
380.207947 0.018441 
382.150848 0.059604 
387.176819 0.075128 
388.159698 0.0822 
392.204071 0.06434 
395.236023 0.040026 
400.161285 0.029604 
405.186615 0.069926 
440.273712 0.073638 
440.304749 0.085678 
447.345581 0.334453 
448.34906 0.057302 
460.887695 0.008183 
475.210358 0.006733 
478.378052 0.009508 
506.283112 0.063324 
529.398682 0.010169 
530.417175 0.032053 
539.56781 0.007933 
544.434937 0.006811 
556.408813 0.320989 
557.410583 0.037059 
562.919739 0.006533 
571.212646 0.007062 
590.529602 0.006786 
703.099976 0.006799 
789.555786 0.007487 
816.435425 0.006526 
840.136414 0.007581 
851.89093 0.006786 
860.103699 0.007431 
867.702087 0.007956 
880.031738 0.006564 
896.966492 0.007734 
899.311218 0.00738 
1033.150146 0.006984 
1191.728394 0.008359 
1205.053589 0.006752 
1225.069824 0.006773 
1267.803833 0.007707 
1284.275024 0.008294 
1367.369507 0.007312 
1385.61377 0.009046 
1407.856567 0.007696 
1417.263184 0.007096 
1470.087646 0.006496 
1487.446045 0.007414 
END IONS

