BEGIN IONS
PEPMASS=321.133
CHARGE=1+
COMPOUNDNAME=Massbank:EA280807 Mycophenolic acid| (E)-6-(4-hydroxy-3-keto-6-methoxy-7-methyl-phthalan-5-yl)-4-methyl-hex-4-enoic acid
LIBRARYQUALITY=3
SMILES=c12c(c(c(C\C=C(\CCC(O)=O)C)c(c1C)OC)O)C(=O)OC2
INCHIKEY=HPNSFSBZBAHARI-RUDMXATFSA-N
INCHI=1S/C17H20O6/c1-9(5-7-13(18)19)4-6-11-15(20)14-12(8-23-17(14)21)10(2)16(11)22-3/h4,20H,5-8H2,1-3H3,(H,18,19)/b9-4+
MSLEVEL=2
SOURCE_INSTRUMENT=ESI-LC-ESI-ITFT
FILENAME=Massbank_ESI_positive_8_1_2014_peaks.mgf
SEQ=*..*
IONMODE=Positive
ORGANISM=MASSBANK
NAME=Massbank:EA280807 Mycophenolic acid| (E)-6-(4-hydroxy-3-keto-6-methoxy-7-methyl-phthalan-5-yl)-4-methyl-hex-4-enoic acid [M+H]+
PI=Putative Massbank Match
DATACOLLECTOR=Massbank
PUBMED=N/A
SUBMITUSER=mwang87
TAGS=
SPECTRUMID=CCMSLIB00000211253
SCANS=5223
53.0384 4464.3 
65.0385 13462.2 
67.0542 4471.9 
77.0386 279268.4 
79.0543 17945.9 
81.0699 16930.9 
89.0389 5478.8 
91.0542 694423.0 
93.0698 10490.5 
95.0492 31234.4 
102.0464 25464.4 
103.0543 792037.4 
105.0333 7103.9 
105.0448 83924.2 
105.0699 17107.9 
107.0491 5622.8 
108.057 4910.3 
115.054 6913.3 
117.0336 46491.5 
117.0704 4767.8 
121.0648 19103.4 
128.0618 5164.2 
131.0492 190350.7 
133.0647 5874.9 
135.0806 24053.0 
136.0519 12592.5 
139.0755 3051.4 
142.0783 3602.0 
145.0649 18496.0 
149.0597 35354.1 
159.044 1293041.9 
161.06 10176.6 
163.0394 9292.5 
165.0549 7973.7 
171.08 3599.1 
175.0759 8497.3 
177.0546 165117.8 
179.0703 50859.6 
195.0649 8871.6 
207.0652 49049.7 
END IONS

