BEGIN IONS
PEPMASS=364.175
CHARGE=1+
COMPOUNDNAME=GIBBERELLIC ACID
LIBRARYQUALITY=3
SMILES=N/A
INCHIKEY=IXORZMNAPKEEDV-SNTJWBGVSA-N
INCHI=InChI=1S/C19H22O6/c1-9-7-17-8-18(9,24)5-3-10(17)19-6-4-11(20)16(2,15(23)25-19)13(19)12(17)14(21)22/h4,6,10-13,20,24H,1,3,5,7-8H2,2H3,(H,21,22)/t10-,11+,12-,13-,16+,17+,18+,19-/m1/s1
MSLEVEL=2
SOURCE_INSTRUMENT=N/A-ESI-QFT
FILENAME=library_mgf.mgf
SEQ=*..*
IONMODE=positive
ORGANISM=MONA
NAME=GIBBERELLIC ACID [M+NH4]+
PI=MoNA
DATACOLLECTOR=MoNA:VF-NPL-QEHF006375
PUBMED=N/A
SUBMITUSER=mwang87
TAGS=
SPECTRUMID=CCMSLIB00004697438
SCANS=6375
50.064762 0.028617 
50.146019 0.115885 
50.314301 0.13648 
50.336582 0.031803 
50.452717 0.107849 
50.510891 0.15322 
50.572021 0.159783 
50.728218 0.029744 
50.768986 0.031276 
51.279087 0.056762 
51.446896 0.027006 
51.459785 0.02888 
51.718342 0.027905 
51.778831 0.110699 
51.940796 0.185015 
52.231674 0.128003 
52.615826 0.125759 
52.724766 0.025741 
52.745659 0.05268 
52.856327 0.029468 
52.932205 0.156296 
52.953083 0.084118 
53.002953 2.539101 
53.039345 11.188756 
53.123695 0.159051 
53.596878 0.165238 
53.770725 0.175285 
53.79446 0.084514 
53.940613 0.178422 
53.950333 0.030257 
53.969234 0.088209 
54.034576 0.19142 
54.247681 0.025512 
54.39106 0.124258 
54.41951 0.11145 
54.795349 0.152044 
54.90052 0.049777 
55.018593 23.10718 
55.02039 0.024789 
55.054977 65.705414 
55.326782 0.032587 
55.469952 0.059368 
55.649403 0.114164 
55.675892 0.182387 
55.935139 1.183991 
56.021961 0.323957 
56.050232 13.066445 
56.058346 1.282723 
56.136665 0.029683 
56.228275 0.032923 
56.249332 0.024366 
56.32502 0.029555 
56.815029 0.126589 
56.841984 0.13729 
56.869179 0.163713 
56.938271 0.117269 
56.965527 100.0 
57.023533 0.129467 
57.034225 8.847698 
57.070629 24.830452 
57.271175 0.094743 
57.409237 0.025679 
57.425663 0.174413 
57.477802 0.17855 
57.570255 0.107966 
57.710575 0.028969 
57.85247 0.047635 
57.927193 0.030217 
58.064327 0.675361 
58.065861 63.046028 
58.118443 0.029463 
58.601467 0.029484 
58.694454 0.028995 
58.713989 0.032645 
58.894783 0.126791 
58.961475 0.218447 
58.995686 0.10817 
58.998558 0.149922 
59.049877 11.526849 
59.061077 0.197639 
59.069157 0.420295 
59.275528 0.162897 
60.04364 0.155115 
60.045105 9.139009 
60.338943 0.037577 
60.958408 1.380641 
61.011387 6.467043 
61.046951 0.036636 
61.075703 0.13731 
61.341797 0.027453 
61.456314 0.153612 
61.488098 0.024942 
61.501801 0.027498 
62.019192 0.922669 
62.290756 0.122794 
62.497101 0.040272 
62.982361 0.203295 
63.147709 0.02848 
63.418304 0.026984 
63.458939 0.179917 
63.998417 0.321852 
64.041626 0.029289 
64.748581 0.032906 
64.93721 0.02736 
64.949646 0.032346 
64.9552 0.032685 
64.97805 0.041648 
65.039284 6.45558 
65.04438 0.033074 
65.097137 0.027199 
65.257446 0.029285 
65.268318 0.111362 
65.302826 0.139891 
65.377197 0.154202 
65.411835 0.027892 
65.865532 0.153042 
66.401131 0.045907 
66.453003 0.186881 
66.514267 0.049268 
66.548981 0.027982 
66.641983 0.134303 
66.678368 0.029915 
66.684433 0.027097 
66.733337 0.114605 
66.755013 0.176088 
66.809189 0.155621 
66.819321 0.03264 
67.054901 60.422176 
67.184013 0.02793 
67.64373 0.167629 
67.654457 0.027159 
68.05014 6.825118 
68.058266 1.541412 
68.48645 0.094831 
68.522423 0.186122 
68.615906 0.112719 
68.997757 0.473632 
69.030762 0.123653 
69.034164 15.336915 
69.04525 0.185679 
69.070534 37.204559 
69.309502 0.101373 
69.468132 0.026779 
69.565887 0.056922 
70.029404 1.161001 
70.065781 38.481995 
70.073929 0.36184 
70.462334 0.183967 
70.719177 0.153691 
70.958511 0.332049 
70.981094 1.446833 
71.049782 13.135837 
71.069153 0.581901 
71.086166 4.856264 
71.088264 0.107687 
71.952515 3.363731 
72.045052 3.801036 
72.081406 10.443109 
72.115639 0.050898 
72.389938 0.07779 
72.586784 0.130424 
72.633286 0.030341 
72.937653 0.092413 
72.960335 1.272851 
73.028984 1.241959 
73.065422 8.385725 
73.81086 0.221958 
74.024254 0.612407 
74.060684 5.749853 
74.096977 0.085385 
74.462868 0.137721 
74.60923 0.142321 
74.698944 0.169815 
74.899818 0.147086 
74.931541 1.267068 
74.9412 0.107545 
74.952904 0.138329 
74.975975 3.118897 
75.044731 0.264715 
75.653603 0.191383 
75.703125 0.165309 
75.731094 0.032978 
76.076363 0.15563 
76.322548 0.139016 
76.701736 0.10483 
76.928535 0.299459 
77.00676 0.053677 
77.00898 2.524598 
77.039223 0.708328 
77.542343 0.132042 
77.577271 0.045393 
77.696693 0.048363 
77.751091 0.079548 
78.590118 0.104417 
78.734612 0.17927 
78.797661 0.148301 
79.00647 0.404378 
79.021812 5.663282 
79.054779 56.266281 
79.464783 0.16574 
79.814285 0.108154 
79.890671 0.033051 
80.050056 6.894227 
80.058144 1.650085 
80.539757 0.030419 
80.592896 0.048628 
81.034027 8.787174 
81.045197 0.953677 
81.05793 0.577282 
81.070412 61.727745 
81.750435 0.031299 
82.029343 0.490314 
82.065643 12.247834 
82.073769 1.379335 
83.013275 0.466265 
83.049675 26.62414 
83.06089 0.155007 
83.086044 13.321583 
83.613579 0.033771 
83.632553 0.171329 
83.976112 0.071362 
84.044907 20.196011 
84.052933 0.162945 
84.078789 0.166573 
84.081291 15.965624 
84.312958 0.032022 
84.960266 0.885504 
85.028915 9.331872 
85.039932 0.062538 
85.048286 0.061737 
85.065292 11.153273 
85.101807 0.148824 
85.750046 0.032826 
86.060577 8.1452 
86.094414 0.038271 
86.096931 10.860873 
86.124054 0.145798 
86.209801 0.174859 
87.041931 0.049311 
87.044563 8.204208 
87.055771 0.100683 
87.081116 0.051662 
87.151917 0.032243 
87.701767 0.031378 
87.919724 0.028304 
88.022263 0.229012 
88.039818 7.329593 
88.07605 0.21203 
88.150345 0.031904 
88.96891 0.243088 
88.991524 0.653794 
89.06028 0.265767 
89.080223 0.033516 
90.04631 0.057277 
90.176445 0.032816 
90.282509 0.163041 
90.310165 0.028534 
90.483192 0.185067 
90.514923 0.119793 
90.948044 0.114742 
91.024422 0.044851 
91.054665 60.577435 
91.812004 0.034964 
92.049889 2.386763 
92.057991 2.676111 
92.625847 0.030579 
92.971031 0.223944 
92.986427 1.068654 
93.00956 0.121146 
93.013351 0.165612 
93.057762 1.323359 
93.070282 48.80661 
93.279243 0.02729 
93.850571 0.105805 
94.029053 0.150175 
94.065567 13.340457 
94.073608 1.418501 
94.42939 0.028583 
94.514717 0.027257 
95.013046 0.129859 
95.019363 1.150891 
95.049568 29.929008 
95.060783 5.814576 
95.073387 0.232062 
95.085938 38.998482 
96.044785 6.016786 
96.052803 0.775977 
96.069023 0.179813 
96.081169 8.166555 
96.08931 0.611712 
96.12458 0.028077 
96.473198 0.119997 
96.485779 0.062481 
97.028801 2.495833 
97.065178 15.750695 
97.076225 0.245645 
97.101547 2.087228 
97.203323 0.035723 
98.002617 0.151255 
98.060417 6.032215 
98.068298 0.030147 
98.096817 21.747528 
98.20414 0.12373 
98.620361 0.031273 
98.975708 11.978753 
99.044449 3.538356 
99.068016 0.286915 
99.080864 1.985346 
99.099907 0.100267 
99.195877 0.195236 
99.322296 0.033976 
99.73275 0.057071 
99.878761 0.028954 
100.039719 0.228911 
100.076065 4.166037 
100.264854 0.084379 
100.991417 2.095498 
101.051018 0.124522 
101.060066 3.785745 
101.898277 0.125859 
101.980713 0.028084 
101.986839 0.032202 
102.055199 1.16801 
102.604553 0.028006 
102.729118 0.122908 
102.968224 0.058849 
103.051315 0.03569 
103.054565 11.671132 
104.049873 0.078004 
104.619797 0.049353 
104.908142 0.13288 
105.033859 2.125195 
105.045067 0.971893 
105.07019 44.249043 
105.343842 0.031741 
105.454414 0.029031 
106.065376 9.226318 
106.073486 2.218436 
106.39032 0.050291 
106.476944 0.026131 
106.701607 0.054183 
106.813995 0.115056 
107.00193 0.475093 
107.049454 16.662613 
107.060593 1.068353 
107.068947 0.036162 
107.073257 3.203269 
107.085815 26.508173 
107.230705 0.026183 
107.850151 0.194498 
107.914764 0.056859 
108.044678 5.011062 
108.052727 0.0866 
108.081047 16.604321 
108.089279 0.253115 
109.028641 0.913356 
109.052399 0.161094 
109.065048 17.110516 
109.076248 3.334359 
109.10144 14.031894 
110.023735 0.188288 
110.056396 0.104165 
110.060257 13.117808 
110.071655 2.189159 
110.080673 0.028169 
110.084061 0.063712 
110.096657 5.168197 
110.239296 0.031607 
111.044289 30.056534 
111.055565 0.565518 
111.080627 4.105847 
111.091759 0.343977 
112.039467 0.972525 
112.047447 0.129011 
112.07592 9.621412 
112.09597 0.034229 
112.112244 1.106367 
113.034767 0.164433 
113.059982 0.581259 
113.071358 0.23282 
113.096283 7.95684 
113.656868 0.115274 
114.055183 1.363134 
114.082031 0.02994 
115.006851 1.466307 
115.054474 5.776579 
115.0755 0.573745 
116.002068 0.201771 
116.055878 0.100033 
116.062225 0.256666 
116.070572 0.075249 
116.491219 0.029081 
116.986107 24.094296 
117.03997 0.10793 
117.057579 1.782427 
117.070038 16.264915 
117.074165 0.189805 
117.312393 0.036595 
117.989594 0.216674 
118.065308 8.362442 
118.073128 0.207178 
118.149063 0.119437 
118.538826 0.033614 
118.947411 0.034027 
119.001694 3.852916 
119.019073 1.346858 
119.049286 12.949615 
119.060562 1.827422 
119.073097 1.370335 
119.085655 30.549753 
120.044479 4.333911 
120.076218 0.082014 
120.08094 32.651531 
120.088806 1.25567 
120.345711 0.144147 
120.40731 0.055146 
120.979088 0.472901 
121.017197 0.080678 
121.028473 3.323094 
121.052528 0.040752 
121.064926 14.843974 
121.076172 2.570716 
121.083931 0.27598 
121.088715 1.815098 
121.101303 13.856002 
121.367836 0.110525 
122.06015 12.78728 
122.068321 0.207981 
122.073212 0.03537 
122.096497 5.654635 
122.771095 0.031767 
122.840515 0.028287 
123.011948 0.036134 
123.044174 5.921958 
123.055336 0.405457 
123.068169 0.398294 
123.080574 9.989184 
123.091797 1.189097 
123.116737 0.334407 
123.23114 0.029991 
123.334099 0.032237 
123.379044 0.122667 
123.615646 0.032017 
124.039413 1.793297 
124.075806 11.873142 
124.112221 1.104713 
124.407227 0.032401 
125.023407 0.239232 
125.0597 3.293762 
125.071022 0.459301 
125.096306 0.18314 
125.686455 0.163753 
125.960632 0.054706 
126.055084 2.315745 
126.091469 3.152906 
126.673805 0.029524 
127.006653 0.041196 
127.038651 0.235058 
127.050522 0.197284 
127.075394 0.244237 
128.062134 6.038328 
128.070633 0.13467 
128.757416 0.032021 
128.964081 0.032527 
128.985931 0.408578 
129.039734 0.157354 
129.054443 0.041008 
129.069916 14.674326 
129.591919 0.031163 
130.049789 0.393873 
130.065063 10.39958 
130.072739 0.06591 
130.077759 1.501697 
130.932877 2.307883 
131.001465 0.853883 
131.019028 0.070396 
131.049088 1.255862 
131.060974 0.1926 
131.068008 0.081922 
131.073029 2.272383 
131.085495 22.150904 
132.044235 1.305938 
132.076202 0.171227 
132.080704 12.810375 
132.088837 0.217516 
132.516861 0.182859 
133.017166 4.347703 
133.034409 0.18822 
133.064789 5.47631 
133.07605 1.936002 
133.088608 2.634123 
133.101151 12.589743 
133.333069 0.107382 
133.98938 0.033993 
134.012482 0.32906 
134.060028 8.565542 
134.065475 0.036708 
134.084335 0.03074 
134.096405 10.117118 
134.104553 0.20792 
134.978729 4.998041 
134.996399 48.946625 
135.032623 0.110073 
135.044067 1.925095 
135.04982 0.155102 
135.055038 0.551933 
135.080383 8.685896 
135.091599 1.42099 
135.116699 2.56217 
135.999802 0.66673 
136.039185 0.809904 
136.062042 0.695921 
136.075623 15.836362 
136.11203 2.767247 
136.957977 0.031493 
136.992691 0.033091 
137.000488 0.069852 
137.011719 18.691332 
137.027985 0.389162 
137.046387 0.159552 
137.059586 2.944382 
137.070938 2.130322 
137.095993 1.967874 
137.107391 0.096502 
137.738968 0.195834 
138.012344 0.554689 
138.054764 6.787851 
138.091324 4.79567 
138.952957 0.029853 
138.983887 0.028718 
138.989365 1.685511 
139.008759 0.786694 
139.039093 0.034858 
139.049759 0.166178 
139.075043 0.407389 
139.085938 0.227252 
139.736877 0.035018 
139.998566 0.053201 
140.034073 0.036351 
140.070374 1.012454 
140.31282 0.033067 
141.022308 0.756986 
141.039856 0.063623 
141.046631 0.029231 
141.069778 4.584962 
141.956696 0.057305 
142.065094 0.108027 
142.077759 5.681443 
142.085831 0.136268 
142.986389 0.098968 
143.001633 0.132433 
143.049637 0.046052 
143.05545 0.060325 
143.072662 0.039959 
143.08551 18.20336 
143.957352 0.185857 
144.08078 8.906361 
144.088211 0.082189 
145.01709 1.262091 
145.034531 0.2053 
145.064697 6.727876 
145.075928 8.91192 
145.082977 0.20712 
145.088608 1.857965 
145.10112 22.686312 
145.31723 0.030405 
145.52713 0.032774 
146.012268 0.182846 
146.059967 34.604973 
146.084122 0.069355 
146.096405 18.384224 
146.103424 0.053123 
146.873322 0.222027 
146.974365 2.006006 
146.996384 3.400489 
147.032745 1.896817 
147.04393 1.213694 
147.049927 0.36723 
147.055023 0.265621 
147.062561 0.108827 
147.068039 0.036952 
147.080368 6.855772 
147.091537 3.228297 
147.104004 0.322933 
147.116867 2.521529 
148.027786 0.041065 
148.039276 4.10496 
148.075623 12.116293 
148.111938 27.217276 
148.94339 3.960782 
148.972 0.030274 
149.0121 4.013661 
149.023224 2.300498 
149.048203 0.311871 
149.059647 2.808951 
149.070801 1.504245 
149.09613 2.303076 
149.107239 1.186225 
149.84256 0.037067 
150.054886 4.527802 
150.091339 8.845105 
150.953827 0.029236 
150.968903 0.253417 
151.027603 1.610855 
151.038544 0.129586 
151.075287 1.224549 
151.086487 1.898085 
151.094254 0.141822 
151.111404 0.158136 
151.998734 0.554851 
152.046661 0.155837 
152.070541 4.27711 
152.106842 1.246854 
152.671906 0.039331 
152.989151 16.08625 
153.006973 11.001183 
153.014008 0.055114 
153.022186 0.287677 
153.054565 0.24085 
153.070068 0.972416 
154.010483 0.039603 
154.048019 0.266889 
154.078125 1.631492 
154.086166 7.691361 
154.122375 0.335313 
154.932816 0.036271 
154.968475 0.520188 
154.985016 0.633382 
155.022202 13.040401 
155.037811 3.478913 
155.060776 0.129348 
155.085434 19.247343 
155.651199 0.183214 
155.98204 0.028911 
156.022873 0.424427 
156.080948 1.249932 
156.087677 0.223619 
156.093826 0.499707 
156.981964 0.039503 
156.999939 0.066973 
157.017838 1.631901 
157.047699 0.033484 
157.064713 1.286051 
157.076187 0.047869 
157.088516 0.126109 
157.101212 12.187747 
158.012283 0.451774 
158.060028 2.513469 
158.07309 0.050635 
158.096512 7.740966 
159.032822 3.092593 
159.050278 0.146397 
159.067978 0.151687 
159.080322 8.338666 
159.09169 2.852328 
159.104156 0.281988 
159.116714 5.814591 
160.027985 0.639545 
160.075623 10.157664 
160.099609 0.293594 
160.11203 5.938296 
161.011978 1.226186 
161.048325 0.678786 
161.059525 0.934061 
161.071045 2.307961 
161.083786 0.46764 
161.095947 4.064642 
161.1073 2.309764 
161.132401 2.698463 
162.007629 0.066679 
162.014496 0.038553 
162.055023 2.163413 
162.066864 0.103632 
162.078751 0.14671 
162.091248 10.195175 
162.127716 1.083985 
162.382477 0.057181 
163.027756 1.148866 
163.050369 0.340918 
163.062805 0.216942 
163.075165 1.251325 
163.086639 1.358339 
163.111603 0.074105 
163.12291 0.540342 
164.070374 3.97674 
164.082825 0.039695 
164.106918 2.97847 
164.283676 0.025723 
165.00708 1.9626 
165.043472 0.286133 
165.069931 12.099053 
165.077347 0.049606 
165.090714 0.148968 
165.102219 0.501529 
166.016113 0.034158 
166.078232 1.253817 
166.086014 3.995526 
166.122482 0.039179 
166.946411 0.027003 
166.953903 1.466147 
167.005173 0.129753 
167.022568 0.435546 
167.03801 0.893945 
167.059082 0.039928 
167.071457 0.107501 
167.085526 4.862369 
167.117462 0.25754 
167.564377 0.147676 
168.080322 0.442573 
168.093307 0.265801 
168.101883 0.33289 
169.016876 0.621181 
169.037598 0.259317 
169.053543 1.337248 
169.064453 0.04105 
169.076126 0.209587 
169.08902 0.0412 
169.101135 9.682307 
170.009521 0.214332 
170.060013 0.219634 
170.096375 1.689103 
170.615829 0.19062 
170.999847 2.827809 
171.032715 5.330666 
171.050339 0.046256 
171.068283 0.066899 
171.080353 6.069116 
171.091583 0.361781 
171.104233 0.263054 
171.116806 1.46702 
172.075516 3.505944 
172.088409 0.190203 
172.111908 5.032294 
172.929337 0.026242 
172.943466 5.082104 
172.951141 0.041248 
173.01265 0.084338 
173.048386 6.881129 
173.059265 0.132494 
173.070969 5.233906 
173.096008 4.480392 
173.107117 3.075903 
173.133224 0.032822 
173.577423 0.031173 
174.044632 0.053103 
174.05481 4.040873 
174.091293 7.006727 
174.102554 0.179851 
174.119812 0.03016 
174.127853 0.788821 
174.976425 0.797917 
175.02771 5.195563 
175.049942 0.129063 
175.063828 1.036237 
175.074738 0.974051 
175.086716 3.028094 
175.09967 0.091052 
175.11203 0.219502 
175.12294 1.604736 
175.131134 0.039936 
175.148239 0.19227 
175.48349 0.207494 
176.059082 0.466232 
176.070435 5.140911 
176.081894 0.222415 
176.094955 0.077062 
176.106827 7.68836 
177.008987 0.768801 
177.022446 0.87668 
177.042984 3.11981 
177.065414 0.352325 
177.078568 0.294647 
177.09108 0.2638 
177.102173 1.852913 
177.138824 0.141727 
177.895523 0.034251 
178.049942 0.185407 
178.077667 22.794777 
178.08609 5.908359 
178.122482 1.402299 
179.006363 0.043611 
179.022247 0.765702 
179.085846 18.845554 
179.117722 0.622883 
180.016922 0.076685 
180.066193 0.267923 
180.09343 28.06212 
180.101608 1.582688 
180.888046 2.00166 
180.938293 0.195442 
181.01796 0.03682 
181.053482 1.596458 
181.06218 0.059789 
181.070999 0.047745 
181.101395 5.729324 
182.009644 0.051337 
182.072922 0.125739 
182.081848 0.074303 
182.109421 0.309939 
182.886917 0.035473 
183.017792 0.790554 
183.032761 2.272722 
183.069275 2.812345 
183.080536 1.388251 
183.116867 2.953624 
184.005234 0.119151 
184.075653 1.252005 
184.087204 0.321876 
184.112 1.423156 
185.012268 0.237557 
185.048538 6.808838 
185.056671 0.066613 
185.070877 0.241796 
185.084732 1.424251 
185.095993 2.729689 
185.107162 0.641911 
185.132584 3.153406 
186.052658 0.121683 
186.061264 0.087571 
186.091324 5.476961 
186.113052 0.03644 
186.127747 0.045931 
187.027618 2.544027 
187.064148 3.757076 
187.07579 0.236136 
187.086563 1.706708 
187.098633 0.11174 
187.11171 0.737014 
187.122971 0.817814 
188.022415 0.035698 
188.058578 0.05417 
188.070526 2.435121 
188.094681 0.359641 
188.106918 4.988274 
188.143967 0.284533 
189.043304 7.501268 
189.053238 0.139697 
189.067139 0.16224 
189.078461 0.501721 
189.091187 0.683824 
189.10202 4.03634 
189.127289 0.061339 
189.138184 0.120102 
190.04866 0.258276 
190.086288 6.899861 
190.122375 2.939418 
190.954025 26.701338 
191.022751 0.248808 
191.058945 2.603607 
191.068909 0.03217 
191.085297 5.77829 
191.093842 0.134778 
191.117935 0.489021 
191.957352 0.135121 
192.065216 0.147496 
192.093307 11.881735 
192.101913 3.092387 
192.987045 1.943682 
193.0383 2.956961 
193.053131 0.148368 
193.074829 0.095662 
193.101196 31.709644 
193.987473 0.039809 
194.081436 0.892585 
194.105118 1.372714 
194.11821 0.038342 
194.688843 0.140964 
195.000488 0.0425 
195.032913 3.148775 
195.053665 0.800153 
195.069473 0.120982 
195.080139 2.095787 
195.116669 6.037516 
195.817719 0.034135 
196.075333 0.056344 
196.087906 0.560876 
196.111023 0.184729 
196.119675 0.182699 
196.983978 0.192915 
197.014175 0.146645 
197.048599 2.04164 
197.066666 0.04199 
197.084564 0.920912 
197.09581 1.957481 
197.132614 0.852486 
198.043076 0.044083 
198.091354 0.665504 
198.898666 0.371704 
198.958481 0.323355 
199.013626 0.132697 
199.027328 0.443513 
199.064087 25.709677 
199.07341 0.883099 
199.081329 0.179079 
199.111664 1.086014 
199.122513 0.205914 
200.023178 0.035293 
200.05928 0.084918 
200.069565 1.321833 
200.09108 0.216911 
200.106674 1.810105 
200.143066 0.051427 
201.009018 0.0362 
201.043304 8.963452 
201.079712 13.709195 
201.090424 0.651631 
201.101685 1.778328 
201.782394 0.035128 
201.893463 0.033177 
202.046936 0.04614 
202.085922 2.234642 
202.096588 0.584171 
202.122528 2.655831 
203.023026 0.180387 
203.058975 11.87029 
203.082779 0.724794 
203.095245 2.435964 
203.117706 2.254174 
203.14296 23.187098 
203.153152 0.060218 
204.063263 0.118979 
204.092178 0.839292 
204.102036 4.798868 
204.112579 0.116598 
204.138077 0.513733 
204.638504 0.034745 
204.930984 0.251205 
204.969727 1.080463 
205.038177 0.944756 
205.063065 0.063376 
205.074478 1.330788 
205.098572 2.267649 
205.133209 0.946514 
206.068558 0.045119 
206.080963 0.314656 
206.108902 13.83147 
206.11821 1.791663 
206.926239 0.220821 
206.964294 0.218061 
207.054016 3.027685 
207.088806 0.099244 
207.113022 2.751474 
208.057816 0.056948 
208.097107 0.625005 
208.121643 0.144485 
208.964706 15.459322 
209.048676 0.187591 
209.084839 0.215833 
209.095901 5.765886 
209.132202 1.946189 
210.100052 0.148985 
210.959473 0.035163 
211.027771 0.044782 
211.063995 6.237452 
211.111298 1.397908 
211.423569 0.116055 
211.966629 0.107904 
212.071198 0.028816 
212.095093 0.044367 
212.107162 0.690439 
212.502975 0.030666 
213.043243 7.887556 
213.079681 1.981831 
213.097839 0.283676 
213.127686 0.481146 
213.885635 0.182545 
214.001984 0.052248 
214.046921 0.101323 
214.086075 0.422917 
214.122299 0.240354 
214.954086 0.946929 
215.058914 7.925556 
215.081177 0.27187 
215.095383 2.280061 
215.117905 1.030459 
215.815521 0.033232 
216.063309 0.1195 
216.101776 1.962921 
216.113983 0.043342 
216.137772 0.235771 
216.174286 0.064654 
216.969589 1.728142 
216.987106 0.147445 
217.0746 33.150478 
217.096786 1.128207 
217.10939 0.269365 
217.133423 0.696103 
218.079422 1.265766 
218.117355 1.823413 
218.15332 0.086715 
219.019928 2.32688 
219.05394 2.998998 
219.077515 1.762054 
219.090286 8.765454 
219.101059 0.027143 
219.115433 1.462091 
219.149185 2.040064 
219.174225 22.820679 
219.304733 0.034751 
219.989182 0.131319 
220.001389 0.902825 
220.012726 0.886189 
220.023727 0.350129 
220.038422 0.233165 
220.046265 0.151187 
220.055344 0.233896 
220.096436 0.569311 
220.133194 0.324193 
221.01503 0.031444 
221.069458 0.882805 
221.09642 0.38396 
221.10614 0.081908 
221.132111 6.142548 
221.933578 0.206324 
222.103073 0.103828 
222.898743 3.30805 
222.910187 0.035065 
222.94165 0.219982 
222.979767 0.492609 
223.027878 0.046811 
223.064331 0.779173 
223.08374 0.063432 
223.110031 0.283776 
223.144257 0.882225 
224.083603 0.03812 
224.105591 0.188519 
224.937164 0.223734 
224.9543 0.09052 
225.043594 0.076555 
225.079666 1.818995 
225.097641 0.5093 
225.127945 0.170487 
226.100067 0.060503 
226.97525 0.184761 
227.058685 1.24013 
227.095001 0.719626 
227.116501 0.043923 
227.142456 0.214708 
228.1017 0.135725 
228.418625 0.03151 
229.074509 58.864651 
229.096481 0.700462 
229.110016 0.085857 
229.133209 0.798653 
229.58139 0.028992 
230.078339 3.2057 
230.117249 0.558515 
230.154022 0.298912 
230.77774 0.037828 
231.053909 7.331362 
231.090332 2.363027 
231.109482 0.389929 
231.13559 0.203542 
231.199661 0.129108 
231.308853 0.172908 
231.997131 0.111843 
232.058716 0.053741 
232.097275 0.532076 
232.132858 0.775936 
232.396744 0.131904 
232.946609 0.042579 
232.963974 8.500212 
233.06958 3.72913 
233.09227 0.080918 
233.106262 0.131511 
233.140213 0.072644 
233.165314 0.056907 
233.967804 0.112531 
234.112213 0.064174 
234.899063 0.048701 
234.980133 0.991103 
234.997467 0.635092 
235.085526 0.662176 
236.165329 0.260094 
236.915222 0.041114 
237.065689 0.071484 
237.079758 1.25613 
237.125641 1.081894 
238.611862 0.168567 
238.914139 0.086317 
239.059158 0.148783 
239.080566 0.176355 
239.094635 0.109919 
239.115143 0.037944 
239.944641 0.045727 
240.136551 0.133275 
240.909027 8.720802 
241.038437 0.034533 
241.074478 9.951339 
241.096878 0.16234 
241.910736 0.166654 
242.07933 0.452731 
243.054169 0.113745 
243.090408 3.653291 
243.109482 1.113148 
244.096146 0.150281 
244.110168 0.042434 
244.168884 0.201859 
244.896561 0.379813 
245.069534 0.535243 
245.106018 0.1131 
245.126068 0.204441 
245.304443 0.028624 
246.910431 0.095722 
246.979919 0.150467 
247.085144 39.342068 
247.638657 0.028882 
247.946411 0.211566 
248.089066 1.727356 
248.974777 0.112809 
249.064575 0.127266 
249.07872 0.223149 
250.008102 0.0757 
250.094574 0.039831 
250.973526 6.884016 
253.086212 0.179031 
254.925125 0.049415 
255.090256 2.963271 
255.136337 0.131078 
256.094269 0.085849 
257.090698 0.062356 
257.125214 0.041816 
257.727539 0.18822 
258.183533 0.037619 
259.084991 4.260342 
259.145508 0.188071 
259.996399 0.032286 
260.163757 0.320092 
261.100983 1.404572 
261.119476 0.034835 
262.10556 0.042159 
262.907257 0.534994 
263.078217 0.222581 
263.943085 0.076807 
264.921204 0.040489 
264.987823 0.104814 
265.957092 0.303942 
266.095825 0.202063 
266.88858 0.032996 
267.090302 0.791273 
267.314606 0.051221 
268.129761 0.260969 
269.788727 0.030419 
271.096771 0.088469 
272.344971 0.028459 
272.973969 0.069381 
273.101044 0.58852 
273.818146 0.154115 
273.88916 0.1334 
274.955841 0.033977 
274.970001 2.128744 
277.415466 0.184178 
279.969788 0.109619 
281.515961 0.104814 
282.773224 0.028074 
283.047302 0.246305 
284.807434 0.605194 
285.10022 0.193003 
285.815521 6.693897 
285.83194 0.045623 
286.823059 0.459709 
287.831238 2.178978 
288.775024 0.029715 
288.838776 0.155627 
288.921783 0.125783 
291.724274 0.033567 
292.98053 0.711299 
292.999847 0.038999 
296.767212 0.029269 
300.822357 0.034125 
301.74176 0.028746 
301.810059 0.379764 
302.176514 0.16772 
302.818207 8.751166 
303.824951 0.478822 
304.18988 0.266963 
304.817505 0.033506 
309.148438 0.03121 
311.374756 0.12152 
312.838623 4.319901 
312.855377 0.030681 
314.840454 0.029079 
322.182861 0.030783 
325.474121 0.03495 
325.831696 0.076569 
326.81778 0.615324 
327.825897 8.067932 
328.829559 0.07116 
329.826233 0.145846 
331.623383 0.131756 
331.888245 0.134495 
334.118286 0.136473 
336.825897 0.181142 
339.007324 0.167738 
340.169403 0.029768 
344.828766 6.509463 
345.833221 0.453671 
346.83017 0.379788 
347.621857 0.034312 
347.840454 0.221234 
353.841034 0.028937 
353.972198 0.214938 
358.97995 0.031362 
360.210052 0.120122 
364.208588 0.030288 
366.725952 0.131603 
371.87442 0.031091 
377.763977 0.105463 
383.521637 0.030978 
385.787292 0.027555 
386.657776 0.144212 
388.049622 0.165629 
END IONS

