BEGIN IONS
PEPMASS=823.436
CHARGE=1+
COMPOUNDNAME=MoNA:746193 Nodularin
LIBRARYQUALITY=3
SMILES=N/A
INCHIKEY=IXBQSRWSVIBXNC-HSKGSTCASA-N
INCHI=InChI=1S/C41H60N8O10/c1-8-31-38(54)48-34(40(57)58)26(5)36(52)46-29(15-12-20-44-41(42)43)37(53)45-28(25(4)35(51)47-30(39(55)56)18-19-33(50)49(31)6)17-16-23(2)21-24(3)32(59-7)22-27-13-10-9-11-14-27/h8-11,13-14,16-17,21,24-26,28-30,32,34H,12,15,18-20,22H2,1-7H3,(H,45,53)(H,46,52)(H,47,51)(H,48,54)(H,55,56)(H,57,58)(H4,42,43,44)/b17-16+,23-21+,31-8-/t24-,25-,26-,28-,29-,30+,32-,34+/m0/s1
MSLEVEL=2
SOURCE_INSTRUMENT=LC-ESI-QFT-LC-ESI-QFT
FILENAME=output_mgf.mgf
SEQ=*..*
IONMODE=
ORGANISM=MONA
NAME=MoNA:746193 Nodularin [M-H]-
PI=MoNA
DATACOLLECTOR=MoNA
PUBMED=N/A
SUBMITUSER=mwang87
TAGS=
SPECTRUMID=CCMSLIB00000567007
SCANS=4258
66.035 0.22615 
67.0302 0.324333 
72.0455 0.801628 
73.0295 1.492983 
74.0247 1.430105 
80.0504 0.157021 
81.0457 0.429723 
82.0299 2.846265 
84.0455 4.387031 
86.0248 0.248356 
96.0455 0.373851 
98.0247 0.373598 
98.0612 1.022086 
100.0039 0.734808 
101.0721 0.145003 
110.0248 7.080402 
111.0327 0.349154 
111.0565 0.18846 
112.0404 4.695809 
112.0771 0.286836 
113.0721 7.171408 
114.0561 0.721944 
122.0488 0.262524 
122.0611 0.886897 
124.0404 2.132382 
125.0245 0.229052 
126.0563 0.138076 
127.0514 1.949031 
128.0353 100.0 
129.0386 0.188324 
130.0509 1.3008 
131.0866 1.804931 
136.0515 0.203293 
137.072 9.590293 
138.056 4.756117 
138.0672 8.670177 
139.0513 2.537385 
140.0719 0.797467 
141.0672 0.215859 
142.0508 0.307667 
145.0614 0.438936 
149.072 1.477148 
150.0554 0.28368 
153.1033 0.147293 
154.0139 0.15252 
155.0824 0.754414 
155.0938 0.67108 
163.0875 0.63966 
168.1139 0.203815 
178.0986 0.244789 
179.0826 0.236864 
180.1142 1.173242 
181.0983 2.821054 
184.0613 1.461302 
198.125 0.19629 
206.094 0.203977 
END IONS

