BEGIN IONS
PEPMASS=427.393
CHARGE=1+
COMPOUNDNAME=(1R,3aR,5aR,5bR,9S,11aR)-3a,5a,5b,8,8,11a-hexamethyl-1-prop-1-en-2-yl-1,2,3,4,5,6,7,7a,9,10,11,11b,12,13,13a,13b-hexadecahydrocyclopenta[a]chrysen-9-ol
LIBRARYQUALITY=3
SMILES=N/A
INCHIKEY=MQYXUWHLBZFQQO-KIIHVYTKSA-N
INCHI=InChI=1S/C30H50O/c1-19(2)20-11-14-27(5)17-18-29(7)21(25(20)27)9-10-23-28(6)15-13-24(31)26(3,4)22(28)12-16-30(23,29)8/h20-25,31H,1,9-18H2,2-8H3/t20-,21?,22?,23?,24-,25?,27+,28-,29+,30+/m0/s1
MSLEVEL=2
SOURCE_INSTRUMENT=N/A-ESI-QFT
FILENAME=library_mgf.mgf
SEQ=*..*
IONMODE=positive
ORGANISM=MONA
NAME=(1R,3aR,5aR,5bR,9S,11aR)-3a,5a,5b,8,8,11a-hexamethyl-1-prop-1-en-2-yl-1,2,3,4,5,6,7,7a,9,10,11,11b,12,13,13a,13b-hexadecahydrocyclopenta[a]chrysen-9-ol [M+H]+
PI=MoNA
DATACOLLECTOR=MoNA:VF-NPL-QEHF009291
PUBMED=N/A
SUBMITUSER=mwang87
TAGS=
SPECTRUMID=CCMSLIB00004700354
SCANS=9291
51.400333 0.136571 
51.9408 6.037921 
51.942841 0.16655 
52.205284 0.149715 
52.24395 0.137954 
52.380501 0.143635 
52.663738 0.147253 
52.836906 0.133426 
52.940861 0.21458 
53.003025 1.83732 
53.039417 2.72029 
53.081688 0.143269 
53.434708 0.168754 
53.784416 0.157485 
53.93927 0.174789 
54.085567 0.127845 
54.968842 0.131768 
55.018665 2.604077 
55.055069 42.554787 
55.218704 0.148048 
55.563274 0.151572 
55.790665 0.148575 
56.05032 3.779258 
56.058399 0.456525 
56.1511 0.159007 
56.432419 0.167034 
56.503693 0.151096 
56.965607 8.935059 
57.034286 5.133373 
57.041409 0.165361 
57.070717 68.093605 
57.696037 0.150098 
58.065956 10.102013 
58.074066 0.7571 
58.299316 0.146015 
58.709038 0.150632 
58.740829 0.158107 
58.800362 0.133236 
58.94828 0.182973 
58.995693 0.192349 
59.049973 54.632942 
59.061176 1.006293 
59.554832 0.17708 
59.720806 0.138866 
59.962875 0.145634 
60.045166 0.927208 
60.053368 0.166392 
60.068623 0.162104 
60.175426 0.136173 
60.731022 0.154974 
60.899635 0.144945 
61.011448 28.519445 
62.019276 34.334652 
62.505329 0.160405 
62.560371 0.143627 
62.982521 32.152584 
62.990562 1.342467 
63.007168 0.159897 
63.027134 0.165304 
63.335033 0.149201 
63.492535 0.150241 
63.998512 2.218806 
64.83017 0.143751 
65.039352 1.666112 
65.417068 0.1245 
65.994133 0.176594 
66.065186 0.165104 
66.681946 0.173303 
67.053169 0.169214 
67.055023 42.367252 
67.070618 0.144582 
67.612503 0.141384 
67.935905 0.190174 
68.050301 0.164034 
68.058334 0.768035 
68.815742 0.159768 
68.943443 1.251684 
69.034271 1.698343 
69.070641 42.66674 
69.126366 0.139299 
69.263252 0.128648 
69.943649 0.160908 
69.959587 0.134145 
70.065887 4.327389 
70.074028 0.159026 
70.181267 0.1271 
70.183876 0.147093 
70.513847 0.152114 
70.958603 0.154302 
71.049889 34.001144 
71.086281 26.952345 
71.097427 0.14746 
71.982635 0.148563 
72.044975 0.149624 
72.077538 0.132683 
72.08152 0.956162 
72.725838 0.14508 
72.937935 0.680691 
73.011108 0.196654 
73.029152 1.652738 
73.047569 28.399654 
73.065475 3.07921 
73.444046 0.143443 
74.628181 0.173291 
75.027084 0.180735 
75.044708 0.228647 
77.238754 0.134665 
78.695839 0.146091 
78.956367 7.390943 
78.958725 0.198019 
78.967857 0.371541 
79.021912 29.724581 
79.054955 23.885954 
79.673782 0.189904 
80.050232 0.732882 
80.058273 0.164141 
80.954369 0.163929 
81.013046 0.140136 
81.01767 1.25983 
81.034195 0.462806 
81.070564 48.381496 
81.073402 0.216348 
81.222939 0.175134 
81.851059 0.180723 
82.065773 0.615517 
82.073936 1.220071 
82.533615 0.139145 
82.605347 0.132379 
82.63266 0.161644 
82.656479 0.153654 
83.049812 3.445767 
83.061043 5.210169 
83.086212 14.215603 
83.638809 0.138311 
83.644249 0.141935 
84.045052 7.522475 
84.081482 0.159989 
84.495468 0.139544 
84.647797 0.16245 
85.029289 0.414637 
85.065445 1.907147 
85.10186 10.56723 
85.278893 0.161173 
86.041435 0.172935 
86.060715 0.170142 
86.097115 0.431824 
87.044693 5.72364 
88.318855 0.152092 
88.882736 0.17194 
89.060349 5.066336 
89.964363 0.649825 
90.94838 0.475978 
90.980682 0.1883 
91.054848 22.008993 
91.057922 100.0 
91.203445 0.143404 
91.257866 0.168154 
91.537666 0.148507 
91.712479 0.154966 
91.826233 0.142495 
91.964653 9.69646 
92.058136 0.490843 
92.962601 0.544167 
92.983253 0.621029 
93.034225 0.179739 
93.037315 4.202342 
93.070496 35.302135 
93.54068 0.14236 
93.562035 0.148507 
93.960022 1.155129 
94.065643 0.202298 
94.073875 1.055033 
95.049698 6.007965 
95.08609 43.084564 
95.258606 0.149684 
95.383224 0.162799 
96.081451 0.406399 
96.089447 1.572733 
96.633636 0.145753 
96.957909 0.159845 
97.065331 3.72449 
97.101692 5.990969 
97.759521 0.184712 
97.880379 0.147701 
97.928253 0.143759 
98.060677 0.361502 
98.096985 1.889092 
98.975929 4.386442 
99.044571 1.77062 
99.081154 0.162242 
99.740524 0.16431 
99.896759 0.141916 
100.07621 0.215002 
100.26326 0.144805 
101.003647 10.107824 
101.060211 4.639071 
101.187202 0.152148 
101.634521 0.153698 
102.055267 0.181352 
102.211853 0.16404 
102.948708 1.5353 
103.039375 0.420272 
103.054749 0.929351 
103.058723 0.147153 
104.830299 0.148067 
105.04512 0.382807 
105.070312 26.531647 
105.073601 3.353263 
105.95459 0.14786 
106.065552 0.373948 
106.0737 1.185721 
107.049606 0.537758 
107.085976 32.317719 
107.727409 0.163444 
108.089279 0.759291 
108.171768 0.15145 
108.235809 0.153401 
108.962975 0.146435 
108.978416 0.158299 
109.065079 2.596108 
109.101608 18.626474 
109.56546 0.169708 
109.792313 0.136922 
109.906258 0.171807 
110.104965 0.179067 
110.674881 0.15784 
111.044403 0.592446 
111.080826 1.421218 
111.521736 0.160725 
112.73468 0.145403 
113.710304 0.167107 
114.510567 0.148362 
115.054482 0.35767 
115.379868 0.155134 
116.071121 0.18831 
116.964165 0.975 
116.982208 0.141197 
116.986229 5.880204 
117.070168 5.371893 
117.964256 0.216811 
118.065079 0.203486 
118.416344 0.139374 
118.91748 0.138139 
118.943237 0.636172 
118.990334 0.187164 
119.049522 0.382716 
119.085876 26.058277 
119.951393 0.231076 
120.081116 0.211114 
120.08918 0.776568 
120.959 0.189165 
121.028709 2.617305 
121.065048 4.192268 
121.10144 17.783663 
121.957253 0.249535 
122.104889 0.816014 
122.922508 0.161717 
122.94091 0.178969 
123.080627 2.026995 
123.117157 2.405856 
125.936066 1.658632 
126.602554 0.154503 
127.021194 0.175494 
128.062195 0.199682 
128.166733 0.178483 
128.560928 0.148301 
128.96405 1.442737 
129.070175 1.925765 
129.964127 0.513427 
130.065308 0.173201 
130.077911 0.191838 
130.97963 2.927048 
131.085663 10.087051 
131.967285 0.146043 
131.979614 1.091547 
132.0811 0.192123 
132.453842 0.149851 
133.065125 0.645071 
133.101364 16.400164 
134.104309 0.551837 
134.972778 0.348713 
134.996689 4.998018 
135.08046 2.072547 
135.116989 9.64781 
135.284393 0.142029 
137.011917 0.344317 
137.096237 1.788715 
137.480392 0.160002 
138.475952 0.171646 
140.749252 0.162242 
140.951233 0.174305 
140.959412 0.215001 
141.070023 1.667933 
141.345764 0.163077 
143.085739 3.125032 
144.081223 0.211481 
144.958984 2.484447 
145.101242 12.165378 
146.104309 0.237997 
146.974426 28.470083 
147.080673 0.926154 
147.106049 0.166612 
147.116882 9.256026 
147.486694 0.180305 
147.974319 9.306857 
148.925705 6.223391 
148.972488 2.528419 
148.990372 0.272904 
149.045013 6.812058 
149.071213 0.218899 
149.096283 0.177519 
149.132416 0.684241 
149.239777 0.17056 
150.921478 1.174617 
150.928513 0.186972 
150.950851 0.17845 
150.968674 0.167421 
152.989349 1.925087 
153.007004 0.439229 
153.959366 0.146635 
154.968964 0.185436 
155.022064 0.174984 
155.085602 1.06786 
156.916718 0.157206 
157.101364 2.435814 
158.903839 3.112696 
158.9935 0.232015 
159.081009 0.191444 
159.116974 7.063247 
160.11969 0.397701 
160.990326 1.486254 
161.023392 0.640072 
161.132599 2.918126 
161.990616 0.221825 
163.039261 0.775836 
163.576859 0.144821 
163.977463 0.33461 
164.920639 25.625238 
166.916443 0.347907 
167.055588 23.800905 
169.065338 0.219426 
169.101547 0.162809 
170.963486 1.089896 
171.117035 1.012902 
171.959869 0.146044 
172.221893 0.151116 
172.958099 0.171076 
173.132629 1.598572 
175.148132 0.213271 
176.546524 0.167957 
176.914322 8.76977 
178.964462 0.207946 
179.954697 0.230153 
180.894821 7.070095 
181.986588 0.195982 
182.926758 0.211667 
183.117233 0.387557 
183.271225 0.159573 
184.514313 0.176504 
184.543198 0.152619 
185.132553 0.570329 
186.492386 0.140097 
187.147339 0.177705 
187.952286 1.077892 
188.950394 0.64184 
188.974106 0.630776 
189.018478 3.818092 
189.163681 0.199735 
189.934647 0.296125 
190.661621 0.170066 
191.881439 0.254599 
192.914841 0.204693 
194.915802 0.610353 
194.92485 29.201275 
197.059921 2.278048 
198.898895 0.146226 
199.219986 0.149055 
200.623749 0.148258 
202.197372 0.162727 
203.143234 1.608919 
204.055984 0.138867 
204.913361 0.174951 
205.96286 0.213859 
206.977829 3.38473 
207.029099 1.645361 
207.377899 0.15185 
207.629333 0.180676 
207.82251 0.157853 
208.883743 1.09308 
208.941025 0.579137 
209.89183 1.483281 
210.565445 0.191836 
211.148605 0.151415 
212.083878 0.177881 
212.935349 15.285331 
215.902237 0.167489 
218.318634 0.166073 
218.868805 0.721902 
219.174271 0.640227 
219.856598 0.139456 
220.274734 1.659703 
220.282227 1.789425 
220.308105 0.216441 
222.380844 0.154816 
222.899078 2.111691 
223.148361 0.159317 
224.878296 0.173768 
225.043121 3.455264 
225.054703 7.435847 
225.870041 0.163206 
226.921082 0.186037 
227.022491 2.116183 
228.900467 2.471063 
230.933136 0.388864 
231.897156 0.154538 
232.885834 0.198788 
233.891403 3.262278 
234.891937 1.107874 
238.965729 0.165453 
240.909454 6.678574 
241.049728 0.919638 
242.446976 0.151497 
242.909943 0.869442 
243.906906 0.391303 
244.884888 0.192364 
244.930771 0.646703 
245.907593 0.245314 
246.314438 0.174501 
246.910706 4.038298 
248.877609 0.193649 
248.908035 0.349124 
250.894058 2.744067 
251.894974 0.517624 
253.049622 11.75385 
255.028717 1.768287 
260.821991 0.172341 
262.882446 0.351132 
262.895264 0.491211 
263.89444 0.641011 
266.058014 0.166774 
268.035217 0.174468 
269.044373 4.843264 
271.059906 0.185277 
274.401764 0.176607 
274.497467 0.147709 
275.432587 0.155958 
275.9021 0.759177 
276.325562 0.177502 
276.876221 0.375975 
276.902374 0.210369 
279.065002 1.133611 
281.044342 40.850651 
283.02356 11.776837 
284.81015 0.151664 
285.037323 0.213576 
285.815765 1.353253 
287.272003 0.161302 
287.831421 0.956274 
292.90741 0.238268 
296.031433 0.849638 
296.906433 0.144312 
297.039551 9.744738 
297.267639 0.18985 
297.6409 0.155872 
298.047638 0.161276 
299.019104 0.187741 
299.054382 0.197109 
299.076172 0.204257 
299.675079 0.165202 
301.034576 0.561369 
301.810059 0.21264 
302.818207 3.590005 
305.04657 0.19035 
307.251465 0.188263 
309.039307 37.613495 
312.839111 6.475205 
313.070038 0.232699 
323.059845 0.165662 
324.887939 1.396691 
324.987244 0.652056 
326.818115 0.624186 
327.048889 0.172535 
327.825867 3.255843 
328.834137 0.202514 
334.270233 0.158972 
341.164978 0.170674 
341.783783 0.196303 
342.341339 0.155813 
342.898407 0.213473 
342.997528 5.250141 
344.828766 10.420339 
358.064484 0.164382 
366.51297 0.155677 
372.884552 0.322252 
376.858856 0.175529 
379.844391 0.16498 
383.112793 9.804086 
386.047729 0.159201 
389.904175 0.176878 
393.652954 0.173248 
401.678741 0.15306 
416.856354 0.344628 
423.694672 0.17273 
428.336578 0.169863 
435.310089 0.159591 
447.347504 2.220176 
449.772614 0.153738 
END IONS

