BEGIN IONS
PEPMASS=333.0
CHARGE=1+
COMPOUNDNAME=Massbank:KO004030 Specitinomycin|Spectinomycin
LIBRARYQUALITY=3
SMILES=CNC(C(O)3)C(O)C([H])(O1)C([H])(C(NC)3)OC(O)(C(=O)2)C([H])(OC(C)C2)1
INCHIKEY=UNFWWIHTNXNPBV-UHFFFAOYSA-N
INCHI=1S/C14H24N2O7/c1-5-4-6(17)14(20)13(21-5)22-12-10(19)7(15-2)9(18)8(16-3)11(12)23-14/h5,7-13,15-16,18-20H,4H2,1-3H3/t5-,7-,8+,9+,10+,11-,12-,13+,14+/m1/s1
MSLEVEL=2
SOURCE_INSTRUMENT=ESI-LC-ESI-QQ
FILENAME=Massbank_ESI_positive_8_1_2014_peaks.mgf
SEQ=*..*
IONMODE=Positive
ORGANISM=MASSBANK
NAME=Massbank:KO004030 Specitinomycin|Spectinomycin [M+H]+
PI=Putative Massbank Match
DATACOLLECTOR=Massbank
PUBMED=N/A
SUBMITUSER=mwang87
TAGS=
SPECTRUMID=CCMSLIB00000220582
SCANS=9822
68.8 108911.0 
70.0 89109.0 
72.1 188119.0 
72.8 69307.0 
74.1 103960.5 
81.1 49505.0 
82.0 74257.5 
84.2 49505.0 
85.2 133663.5 
86.0 123762.5 
87.9 84158.5 
94.2 168317.0 
95.1 29703.0 
96.3 59406.0 
96.5 14851.5 
98.0 589109.5 
99.0 267327.0 
100.3 227723.0 
101.9 34653.5 
107.3 19802.0 
109.3 123762.5 
110.0 74257.5 
112.1 366337.0 
114.1 103960.5 
115.9 207921.0 
121.3 59406.0 
122.2 193069.5 
123.0 39604.0 
128.3 69307.0 
130.0 39604.0 
134.0 39604.0 
134.7 39604.0 
138.1 39604.0 
139.0 34653.5 
140.4 267327.0 
142.2 44554.5 
152.2 14851.5 
153.2 29703.0 
158.3 99010.0 
162.5 29703.0 
171.8 39604.0 
189.1 69307.0 
207.5 69307.0 
238.0 34653.5 
257.8 9901.0 
262.9 14851.5 
286.6 19802.0 
333.5 34653.5 
END IONS

