BEGIN IONS
PEPMASS=468.266
CHARGE=1+
COMPOUNDNAME=TOBRAMYCIN
LIBRARYQUALITY=3
SMILES=N/A
INCHIKEY=NLVFBUXFDBBNBW-PBSUHMDJSA-N
INCHI=InChI=1S/C18H37N5O9/c19-3-9-8(25)2-7(22)17(29-9)31-15-5(20)1-6(21)16(14(15)28)32-18-13(27)11(23)12(26)10(4-24)30-18/h5-18,24-28H,1-4,19-23H2/t5-,6+,7+,8-,9+,10+,11-,12+,13+,14-,15+,16-,17+,18+/m0/s1
MSLEVEL=2
SOURCE_INSTRUMENT=N/A-ESI-QFT
FILENAME=library_mgf.mgf
SEQ=*..*
IONMODE=positive
ORGANISM=MONA
NAME=TOBRAMYCIN [M+H]+
PI=MoNA
DATACOLLECTOR=MoNA:VF-NPL-QEHF011825
PUBMED=N/A
SUBMITUSER=mwang87
TAGS=
SPECTRUMID=CCMSLIB00004702888
SCANS=11825
51.513367 0.058535 
52.021931 0.063113 
52.474236 0.04652 
53.002918 0.409192 
53.242016 0.044305 
54.262405 0.059782 
54.426987 0.070446 
55.008121 0.053298 
55.01862 0.339389 
55.054981 4.881918 
55.748432 0.051939 
55.782581 0.055512 
55.935349 0.065879 
56.050228 0.316705 
56.058426 0.068719 
56.450008 0.054438 
56.653992 0.047735 
56.880775 0.055091 
56.965527 0.204029 
57.034252 1.314162 
57.070614 51.359486 
57.082005 0.045179 
58.065861 0.678976 
58.073952 2.267425 
58.151329 0.051559 
58.548363 0.069432 
59.04987 7.20481 
59.061085 3.933542 
59.354328 0.061883 
59.746189 0.058181 
59.882839 0.050928 
59.969711 0.05784 
59.990971 12.086846 
60.045082 0.189765 
60.139889 0.050014 
60.56633 0.048448 
60.828613 0.050236 
61.01136 14.816198 
61.394943 0.052975 
61.560833 0.047969 
61.734943 0.052647 
61.986744 0.197969 
62.019203 1.194348 
62.060753 4.319701 
62.575569 0.04862 
62.600552 0.045412 
62.982414 1.56817 
63.00716 0.063536 
63.799866 0.051929 
63.869057 0.059525 
64.997139 0.060809 
65.039284 0.391556 
65.092026 0.051404 
65.200928 0.057665 
66.800804 0.052045 
67.053017 0.196776 
67.054916 19.044664 
68.058258 0.324422 
68.37001 0.046414 
68.983177 0.057769 
69.034119 0.413027 
69.070526 7.221234 
69.337479 0.044613 
69.513145 0.0574 
70.009415 0.05015 
70.065742 0.523175 
70.073975 0.127708 
70.958702 0.058018 
71.049782 1.047528 
71.086174 9.581488 
72.044998 0.644199 
72.081383 1.516888 
72.089569 0.158016 
72.937729 0.141936 
73.029045 1.997479 
73.047234 0.073484 
73.065392 0.70076 
74.046394 0.049755 
74.097069 2.462107 
74.183891 0.062426 
74.539444 0.046049 
75.055916 0.615128 
75.46051 0.054195 
75.809708 0.053727 
76.025909 0.061439 
77.986542 0.047329 
78.02755 0.06163 
79.021774 2.410315 
79.054825 3.013335 
79.521011 0.066258 
80.021561 0.050283 
80.05497 0.130662 
80.2994 0.047601 
80.948357 3.96628 
81.03376 0.056017 
81.070419 11.84886 
81.608238 0.063073 
82.065613 0.191205 
82.073807 0.187506 
82.613762 0.046747 
82.945465 1.978434 
83.04966 0.912089 
83.086044 5.666571 
84.081329 2.085666 
85.028923 0.121547 
85.065292 3.627586 
85.101707 5.398937 
86.060432 0.294678 
86.096893 1.469744 
87.044579 9.273995 
88.022148 0.13583 
88.076164 0.188307 
88.978638 0.179228 
89.060173 21.469862 
90.063591 0.417529 
90.23349 0.067415 
90.752777 0.05218 
90.948029 0.602479 
91.054642 3.788599 
91.057823 3.970506 
91.089378 0.046301 
92.057518 0.256131 
92.061333 0.049589 
92.153938 0.055703 
92.609383 0.066445 
93.054695 0.254645 
93.070274 4.537656 
93.280319 0.053629 
93.770653 0.047616 
94.065575 0.309903 
94.301582 0.047277 
95.049568 15.409195 
95.085968 9.766944 
95.3993 0.050842 
96.052948 0.369674 
96.0812 0.371953 
96.089249 0.247991 
96.995911 0.050829 
97.040039 0.059777 
97.065132 2.463344 
97.084648 0.046371 
97.101524 2.516565 
98.09671 0.482373 
98.425697 0.055669 
98.975624 0.056582 
99.044456 0.060208 
99.080765 0.741757 
99.789642 0.047397 
100.076019 0.859306 
100.112206 0.135338 
101.003525 0.640345 
101.06002 2.398243 
102.067581 0.058686 
102.091667 7.665186 
102.219711 0.058062 
103.054512 0.886355 
104.177803 0.04706 
104.367493 0.051524 
104.992607 0.214731 
105.03363 0.209333 
105.070129 3.238769 
106.528427 0.054988 
107.049324 0.161438 
107.070335 0.215226 
107.085831 4.758268 
107.96701 0.106567 
108.080864 0.10324 
108.958466 0.207861 
109.06488 0.687467 
109.101387 10.077932 
110.104683 0.321445 
110.445534 0.056527 
111.044197 0.161134 
111.080688 0.780875 
111.117081 0.253401 
113.059761 0.108167 
113.186218 0.061254 
114.091568 0.081093 
115.231812 0.057057 
115.49131 0.06632 
116.053032 20.696777 
116.7855 0.055724 
116.984825 1.51686 
117.056313 0.673964 
117.070206 0.324402 
117.091545 0.071411 
117.397621 0.058019 
118.048737 0.502762 
119.085663 4.877592 
119.151733 0.048643 
120.080948 0.355219 
120.089149 0.071539 
120.940582 0.06292 
121.064842 2.572705 
121.101334 3.905574 
122.875923 0.050464 
122.880836 0.048151 
122.940971 0.300658 
123.08049 1.504396 
123.116928 3.883517 
125.059731 0.317368 
125.096046 0.270966 
125.961014 0.198056 
126.127724 0.244486 
126.455788 0.060315 
126.77948 0.048298 
127.056183 0.127454 
128.106964 0.236443 
128.138153 0.086127 
128.143417 12.515424 
129.054642 0.066627 
129.070541 0.14403 
129.146774 0.517499 
130.159012 0.219941 
131.000183 2.495937 
131.038864 0.052208 
131.049133 2.451889 
131.085587 2.206834 
132.987061 0.056456 
132.996048 0.059242 
133.065002 0.235378 
133.085861 3.445194 
133.101151 3.511622 
134.090302 0.061822 
134.096359 0.135296 
134.104416 0.057966 
134.879944 0.05421 
134.956085 2.815182 
134.995819 1.080927 
135.002792 0.510295 
135.080399 3.821589 
135.116791 2.367087 
136.083282 0.05743 
136.112 1.083658 
136.952362 0.05824 
137.09613 0.667832 
137.132431 0.592449 
137.210144 0.04823 
138.127533 0.294984 
138.345169 0.055577 
138.380753 0.046866 
138.823792 0.056916 
139.112122 0.112228 
139.135391 0.053982 
140.068146 0.052265 
140.143234 2.756434 
140.951767 0.059678 
140.958771 0.057274 
141.071381 0.080645 
141.146393 0.054291 
141.845322 0.050563 
142.158905 0.237396 
142.872375 0.055163 
143.000107 1.264192 
143.08548 0.492058 
144.592529 0.051777 
145.015808 2.149429 
145.06517 0.062862 
145.101181 2.249034 
145.942413 0.058701 
146.096664 0.061111 
147.080383 0.592843 
147.116699 12.374376 
147.124023 0.050091 
147.632828 0.059949 
148.119995 1.418733 
149.010803 0.519268 
149.05957 0.156557 
149.096085 0.542434 
149.132584 0.300092 
150.951004 4.510553 
151.111206 0.075153 
151.132477 0.050968 
152.951462 4.936461 
152.966644 2.377857 
152.989273 0.058853 
153.020752 0.545839 
153.071945 0.061997 
153.758865 0.052812 
153.952957 0.102458 
153.959183 10.634545 
154.005981 0.125306 
154.01799 0.066751 
154.122086 0.060516 
154.967133 0.148652 
155.015274 0.061891 
155.03624 0.216405 
155.085663 0.108775 
156.138199 0.343289 
156.946335 0.131068 
157.015625 1.695635 
157.101013 0.819586 
157.278366 0.048071 
158.995041 1.03853 
159.031479 0.285459 
159.080322 0.171836 
159.099411 0.051261 
159.116684 5.181107 
160.016937 0.068394 
160.119659 0.061289 
160.147461 0.06855 
160.240189 0.057726 
161.010483 0.270027 
161.095947 2.027395 
161.132462 1.018163 
162.193161 0.056573 
162.972031 0.490591 
163.004593 0.073263 
163.026871 0.166071 
163.056091 0.385946 
163.111572 1.079477 
163.147949 0.295279 
164.377502 0.062601 
164.920441 2.400164 
164.966782 0.059705 
164.987839 4.022265 
165.071442 0.240144 
166.56868 0.053221 
166.981705 0.055577 
167.036423 1.045374 
167.055527 0.11583 
167.974945 0.301509 
168.961533 2.222957 
168.982773 1.540603 
169.015839 0.095128 
169.052307 0.234646 
169.101608 0.064076 
170.107895 0.059999 
170.30661 0.065953 
170.962021 3.321373 
170.995087 0.395111 
171.00972 0.062462 
171.031265 0.855164 
171.11676 0.736165 
172.115173 3.91727 
173.01062 2.189276 
173.096237 0.340915 
173.118835 0.14118 
173.132401 5.11169 
173.995651 0.05812 
174.135895 0.289881 
174.989853 6.934445 
175.111938 0.313871 
175.147934 0.568156 
176.987732 8.147389 
177.005463 2.479386 
177.072418 0.063596 
177.127258 1.923471 
177.972733 0.278835 
179.003113 0.161899 
179.051849 0.062685 
179.087112 0.494533 
180.893967 0.076176 
181.052063 0.947009 
182.037323 0.275341 
182.579422 0.050863 
182.998642 0.135751 
183.031311 0.068194 
183.116745 0.071509 
183.94812 0.063413 
184.932678 0.069404 
185.010773 1.472335 
185.046875 0.474601 
185.0961 0.221181 
185.132355 0.915824 
185.949005 8.771413 
185.978424 0.063913 
186.879089 0.080569 
187.026505 0.253647 
187.111359 0.198319 
187.954697 0.19364 
187.993607 0.175332 
188.021942 0.128036 
188.10611 0.055488 
189.005539 7.129831 
189.127075 0.143217 
190.00293 0.199388 
190.9814 0.074573 
191.00322 1.740755 
191.021057 0.543593 
191.086884 0.065173 
191.142929 3.62132 
191.988815 0.268591 
192.006195 0.882675 
192.961243 0.22243 
193.10289 0.644995 
194.92453 0.078807 
194.998535 1.228853 
195.067566 0.634535 
195.11702 0.536034 
195.9599 0.062728 
196.053177 2.51217 
197.012161 0.208698 
197.131943 0.067512 
197.963074 1.024893 
197.978134 0.060805 
199.026352 1.412626 
199.11174 0.321141 
199.964569 0.287429 
199.993774 0.272018 
201.020325 0.064571 
201.04187 0.064171 
201.127487 2.762082 
201.839996 0.046654 
202.967667 0.068159 
203.021362 2.575584 
203.087845 0.214118 
203.143143 0.767061 
203.988647 0.544778 
205.01825 0.060919 
205.102905 0.867475 
205.967392 0.072071 
206.004349 2.108234 
206.9767 0.066962 
207.00209 0.496188 
207.01387 0.062161 
207.118118 0.063928 
207.704605 0.048232 
209.014267 0.058927 
209.083389 0.160843 
209.132858 0.325278 
210.040359 0.067098 
210.18483 0.237837 
210.970734 0.067203 
211.978531 1.202089 
212.486435 0.059455 
213.041824 0.261053 
213.127121 0.319412 
213.639084 2.777785 
213.64975 3.00952 
215.087845 0.066476 
216.042831 1.106367 
217.037033 0.135579 
217.103271 0.685553 
217.967972 1.519461 
218.004303 2.041006 
218.273315 0.068162 
219.010681 0.077896 
219.118317 0.221066 
219.138107 2.409461 
219.174377 2.061084 
219.983566 3.919937 
220.019882 2.015177 
220.141006 0.067018 
220.177551 0.069025 
220.618988 0.047326 
221.133392 0.123124 
222.898102 0.086954 
223.11171 0.073647 
223.978577 1.74485 
224.602859 0.051809 
225.042694 2.730688 
225.538452 0.047712 
225.994354 0.261725 
226.009293 0.833316 
226.042679 0.470892 
227.023392 0.066167 
227.03952 2.525136 
228.024918 1.061222 
228.039505 0.055834 
229.001419 0.520758 
229.034775 0.189945 
229.896332 0.059229 
230.040649 0.313755 
231.983597 8.762223 
231.99675 0.095906 
232.019302 0.212068 
232.986786 0.160804 
233.153458 0.176551 
233.814026 0.051899 
233.999191 3.368148 
234.153641 0.235369 
235.112991 0.051625 
235.149887 3.259969 
235.978622 0.30243 
236.153 0.073103 
236.996445 0.173432 
237.994156 17.638567 
238.99527 0.416999 
239.98967 0.324703 
240.909073 0.818228 
241.158066 0.221959 
242.104019 0.054505 
242.283722 0.197578 
242.935379 0.052984 
244.018997 0.070502 
244.138016 0.341688 
245.027588 0.081472 
245.133911 4.042383 
246.035461 2.313317 
246.137726 0.120329 
247.011688 0.135052 
247.042862 0.667631 
247.906113 0.25848 
249.165588 0.398069 
250.125366 0.065198 
250.177475 0.07619 
250.957474 0.066479 
251.012558 0.099089 
251.179535 0.114879 
252.009628 13.342555 
253.010956 0.590488 
254.147095 0.055219 
255.231766 0.072456 
258.808624 0.273449 
259.11496 0.591411 
259.149506 0.073451 
259.330872 0.050212 
259.816589 0.077539 
260.014862 1.641844 
261.130188 0.07844 
262.030396 1.655869 
262.169678 0.053212 
263.020416 0.579944 
263.900787 0.07631 
264.027405 0.069361 
264.538208 0.06109 
264.909058 0.226041 
266.025177 0.332094 
268.902222 0.076268 
269.421539 0.055618 
270.315521 0.214255 
270.910004 0.13899 
271.098389 0.066353 
273.230194 0.053925 
276.636719 0.057697 
276.818695 0.399252 
277.109863 0.079879 
277.160461 0.832773 
279.895905 0.191778 
280.109802 0.065266 
281.030975 2.477597 
281.911743 2.741006 
282.038391 1.179544 
282.917694 0.122411 
283.02832 0.084063 
283.046448 0.521596 
283.468048 0.053118 
284.153229 0.073886 
284.899292 0.068675 
285.009003 0.274791 
285.026733 0.146935 
286.54306 0.060111 
286.893433 0.053405 
287.035583 1.095569 
288.921173 1.67961 
290.041962 0.052034 
290.947174 0.661649 
293.180389 0.059808 
295.04538 0.07138 
297.183746 0.372019 
298.3461 0.080054 
299.041534 1.033594 
299.060852 0.607149 
301.058594 1.074675 
302.059784 0.121756 
303.056274 0.868453 
303.184692 0.057357 
304.046906 0.208982 
304.108063 0.093335 
305.045868 4.468561 
306.048462 0.302342 
306.9328 0.545852 
307.135193 2.76112 
308.139343 0.233656 
309.150696 2.745128 
310.020966 0.085032 
310.153809 0.548484 
310.822357 0.129534 
311.167328 0.217998 
311.189087 0.219963 
311.294189 11.623211 
311.830963 2.700478 
312.041351 0.049078 
312.169647 0.667153 
312.297485 1.509881 
312.838867 6.57226 
314.010559 0.266259 
317.82132 2.749193 
318.828217 3.188956 
319.835663 1.086483 
321.465912 0.063839 
322.913879 0.097998 
323.056396 0.14258 
325.14624 0.63693 
326.81842 0.067922 
327.095642 0.05867 
327.161285 2.729698 
327.825623 1.901671 
328.163971 0.238453 
328.83371 4.363311 
329.177124 3.747349 
329.841064 1.745694 
330.17981 1.192737 
331.198425 0.134408 
332.196472 0.820902 
334.821808 0.067891 
334.84201 0.336421 
335.830231 21.055895 
336.838654 58.96983 
337.840454 6.462432 
338.759888 0.07326 
338.840973 0.592372 
339.831512 0.055107 
344.828674 3.611173 
346.093658 2.056705 
347.097687 0.069142 
347.188232 1.983154 
348.109528 2.090093 
348.952637 0.387015 
349.846619 0.870402 
350.206879 0.251868 
350.853424 0.716411 
350.945221 0.116717 
351.059296 0.099309 
351.846375 0.547174 
352.832062 2.391159 
353.841125 100.0 
354.847198 22.011885 
355.846985 2.333458 
359.201752 0.064357 
360.838562 6.261377 
361.112762 0.249212 
361.841461 0.15722 
366.119629 0.160343 
367.857544 5.706337 
368.352203 2.987571 
368.863312 1.136817 
369.355957 0.189311 
369.83606 5.09826 
370.843597 9.365269 
371.851776 15.44805 
372.852783 1.124817 
376.834198 1.636618 
377.839478 0.52759 
378.849365 2.370996 
384.859192 0.072845 
385.866974 0.131109 
387.846588 2.858323 
389.180511 1.637273 
390.182465 0.063621 
392.199127 0.434916 
393.107605 0.077804 
393.851166 0.424081 
394.844055 35.750271 
395.846619 4.741879 
396.847839 0.518694 
400.329132 0.065512 
403.164093 0.583827 
407.192139 0.076788 
408.859558 2.448397 
409.856415 0.066888 
411.045837 0.093384 
412.854584 9.646995 
413.855682 0.64643 
416.704193 0.058102 
419.128967 1.17461 
426.871338 0.099555 
431.010406 0.054798 
435.219269 6.995736 
436.223358 0.780595 
437.138458 0.480084 
447.346039 2.038615 
448.349304 0.134379 
457.180573 0.178135 
466.441864 0.073763 
466.49884 0.595914 
466.533661 3.369398 
466.869812 0.063122 
467.108521 2.037116 
467.246246 3.431439 
467.501099 0.095385 
467.537567 1.339587 
468.110992 0.296247 
468.248871 0.30096 
468.45639 0.117994 
469.312531 0.067426 
469.385468 5.405791 
470.391144 0.275727 
475.191711 3.401664 
476.194733 0.576677 
477.461121 0.083172 
493.201935 0.699687 
END IONS

