BEGIN IONS
PEPMASS=449.192
CHARGE=1+
COMPOUNDNAME=(5S,8S)-8-benzoyl-2-[(Z,1S,2S)-1,2-dihydroxyhex-3-enyl]-9-hydroxy-8-methoxy-3-methyl-1-oxa-7-azaspiro[4.4]non-2-ene-4,6-dione
LIBRARYQUALITY=3
SMILES=N/A
INCHIKEY=SLYDIPAXCVVRNY-BBJHAQHQSA-N
INCHI=InChI=1S/C22H25NO8/c1-4-5-11-14(24)15(25)16-12(2)17(26)21(31-16)19(28)22(30-3,23-20(21)29)18(27)13-9-7-6-8-10-13/h5-11,14-15,19,24-25,28H,4H2,1-3H3,(H,23,29)/b11-5-/t14-,15-,19?,21+,22+/m0/s1
MSLEVEL=2
SOURCE_INSTRUMENT=N/A-ESI-QFT
FILENAME=library_mgf.mgf
SEQ=*..*
IONMODE=positive
ORGANISM=MONA
NAME=(5S,8S)-8-benzoyl-2-[(Z,1S,2S)-1,2-dihydroxyhex-3-enyl]-9-hydroxy-8-methoxy-3-methyl-1-oxa-7-azaspiro[4.4]non-2-ene-4,6-dione [M+NH4]+
PI=MoNA
DATACOLLECTOR=MoNA:VF-NPL-QEHF020451
PUBMED=N/A
SUBMITUSER=mwang87
TAGS=
SPECTRUMID=CCMSLIB00004711514
SCANS=20451
50.015522 0.165266 
50.143326 0.039378 
50.27758 0.018 
50.521721 0.015853 
50.754223 0.018985 
51.0233 0.768818 
51.099506 0.017038 
51.155819 0.021935 
51.940277 0.571183 
52.325535 0.019164 
52.399143 0.025744 
52.715015 0.04031 
52.974518 0.03506 
53.002556 0.205539 
53.038906 13.852289 
53.261753 0.036425 
53.266827 0.043201 
53.931194 0.017644 
55.018139 1.668799 
55.054523 3.902032 
55.28194 0.014919 
55.934677 0.739731 
55.955563 0.029116 
56.049763 0.46536 
56.651058 0.014709 
56.76112 0.033471 
56.965057 79.345528 
57.026321 0.015887 
57.03376 1.473666 
57.070148 3.978615 
57.286324 0.020284 
57.328751 0.020289 
57.935032 2.396385 
58.029022 0.228719 
58.055046 0.015083 
58.06538 2.781167 
58.601074 0.023984 
58.718872 0.02028 
58.932888 0.94883 
58.960922 0.042106 
58.998138 0.069978 
59.049381 0.397295 
59.060612 0.028005 
59.068737 0.018873 
59.181335 0.023168 
59.687565 0.032777 
59.73167 0.045556 
59.925114 0.026499 
59.930473 0.734062 
60.044601 4.649885 
60.080963 0.040146 
60.813877 0.030052 
60.934967 0.026223 
60.957912 0.307645 
61.010853 5.259006 
62.018658 0.560183 
62.609695 0.032323 
62.657364 0.03189 
63.997898 0.138279 
64.197067 0.022933 
64.658546 0.028983 
65.038742 1.045946 
66.046532 0.027633 
66.336784 0.030576 
66.404648 0.027903 
66.640594 0.02318 
66.773544 0.025656 
67.017838 0.049177 
67.054344 6.704545 
67.678383 0.033367 
67.817665 0.024746 
67.935028 0.028535 
68.049568 0.585176 
68.181129 0.052283 
68.184097 0.020208 
68.942627 0.020889 
68.997192 0.686553 
69.033539 1.415156 
69.056 0.024543 
69.069962 1.6203 
69.447289 0.019709 
69.473198 0.022807 
69.978371 0.028361 
70.065193 2.054316 
70.06707 0.020034 
70.073235 0.038453 
70.179543 0.03301 
70.407036 0.01772 
70.957977 0.104752 
70.980515 2.547163 
71.049202 1.866035 
71.085686 0.017847 
71.350815 0.026415 
71.782272 0.0162 
71.929558 0.021386 
71.951897 2.648051 
72.044441 0.210956 
72.080826 0.526248 
72.387619 0.018105 
72.937164 0.185132 
72.959747 1.49756 
73.046883 0.207999 
73.064812 0.078376 
73.343666 0.028943 
73.546333 0.018971 
73.956154 0.218563 
74.282036 0.017407 
74.937752 0.018617 
74.973297 0.034535 
74.97541 2.407926 
75.043915 0.021486 
75.93541 0.027872 
75.945412 0.087729 
76.134682 0.029349 
76.789795 0.025562 
77.008369 0.732627 
77.038521 3.16238 
77.048248 0.023798 
77.81192 0.02922 
77.96627 0.027525 
78.005905 0.035046 
78.046654 0.043254 
79.005943 0.042952 
79.021217 2.416017 
79.034409 0.037367 
79.05426 5.240946 
79.876892 0.0232 
80.049446 0.602758 
80.34938 0.034816 
80.515457 0.032365 
80.852875 0.019268 
81.033524 4.429476 
81.044708 0.12499 
81.069908 2.511822 
81.447884 0.015464 
81.978516 0.017943 
82.041092 0.019364 
82.065147 0.723303 
83.01033 0.763285 
83.01281 0.61128 
83.049133 3.07495 
83.060326 0.043036 
83.085648 0.056003 
83.744102 0.017694 
83.975739 0.349456 
84.04435 0.182767 
84.080826 0.658226 
84.820946 0.035005 
84.895607 0.026818 
84.959709 6.007787 
85.02845 0.507667 
85.064812 1.782661 
86.060051 0.14982 
86.096443 0.61672 
86.56797 0.016286 
87.04406 0.828201 
88.07579 0.022374 
88.361084 0.018255 
88.968445 0.045328 
88.991013 0.993601 
89.038589 0.2577 
89.059814 0.027776 
89.474342 0.021126 
90.436638 0.019788 
90.947769 0.276198 
91.054291 8.738987 
91.057373 1.471311 
91.4198 0.034548 
91.966743 0.062207 
92.025688 0.025035 
92.049469 0.127873 
92.057457 0.212376 
92.372078 0.033162 
92.79686 0.039957 
92.985954 2.491912 
93.057251 0.042835 
93.066811 0.020789 
93.069885 2.198822 
93.955956 0.398508 
94.065117 0.954101 
94.446037 0.025508 
94.781647 0.016891 
94.953705 0.183995 
95.018867 0.159747 
95.049156 23.141459 
95.06028 0.175889 
95.072372 0.019245 
95.085564 0.971478 
95.926949 0.020697 
96.044304 0.265741 
96.052536 0.269976 
96.080719 1.082783 
97.028458 0.174818 
97.064857 0.327806 
97.076157 0.022722 
97.967834 0.034119 
98.033813 0.049448 
98.05999 0.21276 
98.096298 0.093026 
98.975372 2.824638 
99.044106 0.312367 
100.011086 0.036599 
100.243538 0.017976 
100.991096 0.051787 
101.059776 0.093848 
101.664032 0.036663 
102.523582 0.021501 
102.947937 0.041704 
102.956299 0.095754 
102.970222 0.821609 
103.054245 1.706685 
103.75309 0.030265 
103.954102 0.111602 
104.049477 1.935046 
104.427025 0.032579 
105.033554 100.0 
105.044632 12.054476 
105.057152 0.040755 
105.069916 2.507195 
105.983658 0.025352 
106.036858 2.918511 
106.041046 0.065324 
106.048065 0.01914 
106.06517 9.950287 
106.384308 0.020037 
107.001518 0.070102 
107.049171 0.912955 
107.068451 0.032385 
107.072525 0.046858 
107.085518 0.811962 
108.044434 0.135536 
108.080772 0.47722 
108.428719 0.034268 
108.958031 0.041057 
109.028488 0.555048 
109.064835 1.024312 
109.076096 0.149996 
109.101242 0.156174 
110.060036 0.851972 
110.096397 0.044844 
110.975372 0.06396 
110.996338 0.071532 
111.044228 3.602647 
111.055275 0.020065 
111.818375 0.037446 
112.075676 0.165022 
112.380768 0.021442 
113.060036 0.021829 
113.086349 0.01853 
113.262856 0.032766 
113.522957 0.194296 
113.786674 0.019881 
113.819458 0.020787 
114.018646 0.018604 
114.055061 0.042507 
114.192566 0.018033 
115.00666 0.092166 
115.054245 0.987766 
115.966194 0.022156 
116.002052 0.046278 
116.049438 1.137893 
116.053902 0.028023 
116.763832 0.039002 
116.985764 3.16902 
117.057312 0.498787 
117.06987 0.901766 
117.47821 0.034174 
118.041458 0.059429 
118.065132 2.197625 
118.515236 0.47766 
119.001503 0.266057 
119.049164 0.939728 
119.060555 0.026635 
119.072784 0.018738 
119.085571 1.137628 
119.827805 0.034057 
119.950745 0.088049 
120.04438 0.136777 
120.080795 0.613074 
120.372902 0.031935 
120.980835 0.023649 
121.028503 0.456119 
121.039925 0.022271 
121.060539 0.03569 
121.064789 3.393755 
121.076233 0.030711 
121.101326 0.114393 
121.520325 0.079261 
121.544983 0.022122 
122.059982 0.326541 
122.096375 0.111317 
122.940872 1.022678 
123.011627 0.055682 
123.044044 0.595752 
123.080444 0.109407 
123.09156 0.42737 
123.874214 0.036936 
123.938759 0.190122 
124.009468 0.021261 
124.039246 0.033183 
124.075752 0.23317 
124.098969 0.040369 
124.112068 0.023365 
124.99099 0.87873 
125.007286 0.025341 
125.0233 0.255831 
125.059799 0.07888 
125.070786 0.02624 
125.986229 0.042922 
126.055161 0.024457 
126.06282 0.020442 
126.091446 0.023612 
126.235596 0.024783 
126.66906 0.030422 
127.006615 0.455867 
127.024017 0.123599 
127.0364 1.265792 
127.065018 0.019834 
127.489868 0.03559 
127.52037 0.561152 
128.001434 0.022507 
128.062042 0.811137 
128.748077 0.028963 
128.933273 0.035585 
128.963715 0.35449 
128.974319 0.858602 
128.985504 0.671689 
129.021835 0.056039 
129.039352 0.022087 
129.069809 1.940746 
129.982346 0.146834 
129.992279 0.041128 
130.065155 0.935523 
130.073013 0.023138 
130.525742 0.127761 
130.9328 0.026922 
131.000443 0.128454 
131.04924 0.243274 
131.072723 0.046963 
131.08551 0.485213 
131.99678 0.037154 
132.039169 0.015767 
132.044357 3.002041 
132.080719 0.491163 
132.958771 0.025731 
133.016769 0.123218 
133.028397 0.684409 
133.052231 1.061646 
133.064758 1.020476 
133.075989 0.021069 
133.101074 0.213913 
133.566086 0.025834 
134.012482 0.029704 
134.059982 4.584669 
134.09639 0.331967 
134.528244 0.099011 
134.956512 0.018163 
134.978622 0.314002 
134.996429 1.91106 
135.043976 0.850341 
135.080368 0.256055 
135.091537 0.111144 
135.104218 0.021831 
135.956604 0.225372 
135.981689 0.023236 
136.039215 0.031425 
136.075699 0.376173 
136.112106 0.720748 
137.011765 3.220496 
137.023239 0.377147 
137.059662 0.406428 
137.071228 0.01487 
137.096146 0.073049 
137.547119 0.036728 
137.927933 0.209311 
138.012283 0.073283 
138.055038 0.045405 
138.127609 0.527135 
139.006805 1.037585 
139.038971 5.293747 
139.96759 0.030931 
140.070526 0.094393 
140.143494 0.020764 
140.98465 0.1883 
141.022018 0.096664 
141.069885 0.922409 
141.372025 0.027372 
142.979355 0.02326 
143.001465 3.041477 
143.085541 0.512336 
143.99707 0.081618 
144.04425 0.084839 
144.080811 0.180733 
144.523163 0.029258 
144.98024 0.148006 
145.01712 0.847904 
145.028473 0.074315 
145.034485 2.624041 
145.052277 0.080496 
145.064804 0.37084 
145.075912 0.134208 
145.08844 0.071836 
145.101044 0.118701 
146.035492 0.061808 
146.059967 1.531751 
146.096298 0.186218 
146.974319 3.647955 
146.996353 0.45077 
147.020584 0.042601 
147.032227 0.262319 
147.04422 0.063586 
147.050003 0.019645 
147.080536 0.138831 
147.091644 0.278787 
147.117203 0.019143 
147.974503 0.133668 
147.993805 0.026188 
148.075668 0.740044 
148.112289 0.040134 
148.226959 0.032224 
148.942871 0.030672 
148.972015 1.067578 
148.990875 0.049611 
149.011749 0.085672 
149.059799 0.029171 
149.096054 0.022871 
149.107681 0.030693 
149.985718 0.045083 
150.007477 0.031458 
150.031403 0.071227 
150.055023 0.096648 
150.09137 0.240564 
150.698181 0.024703 
150.950989 0.136007 
150.968567 0.08967 
150.984543 0.027618 
151.006714 0.499885 
151.027603 0.034391 
151.038895 0.471641 
151.122253 0.01753 
151.282944 0.039726 
151.970032 1.415377 
151.999084 0.099532 
152.07048 0.093184 
152.100601 0.021539 
152.10704 1.014765 
152.448425 0.033979 
152.459946 0.021435 
152.951447 1.078735 
152.966049 0.021581 
152.989349 0.31461 
153.007187 0.071496 
153.018173 1.485329 
153.055206 0.044491 
153.069885 0.326092 
153.735367 0.033523 
153.959305 5.4764 
153.966858 1.090902 
153.982224 0.16442 
153.992233 2.840359 
154.064209 0.018537 
154.946838 0.036799 
154.957123 0.250409 
154.96727 0.047099 
154.990112 0.486528 
155.001465 0.305171 
155.022583 1.240624 
155.033707 14.553385 
155.060379 0.285706 
155.954941 0.122187 
155.961578 0.053717 
155.997818 0.111661 
156.024994 0.027963 
156.068039 0.068779 
156.080963 0.09939 
156.946747 0.026231 
156.956802 0.018454 
157.017166 1.992364 
157.049454 1.961442 
157.064819 0.373198 
157.076187 0.20822 
157.088654 0.023737 
157.101364 0.06025 
158.024475 0.034736 
158.060165 0.186887 
158.096497 0.2086 
158.528427 0.046411 
158.996597 0.051019 
159.032669 0.163637 
159.055298 0.023261 
159.080292 0.051743 
159.091599 0.163303 
159.991837 0.036927 
160.027802 0.056041 
160.0392 0.08987 
160.075577 0.30349 
160.098969 0.028498 
160.112228 0.137572 
160.975723 0.052708 
160.990967 0.032779 
161.012024 3.527413 
161.048203 0.062477 
161.059464 0.119778 
161.09584 0.07115 
161.107162 0.069331 
161.356567 0.020044 
162.006897 0.125479 
162.055023 0.808063 
162.091232 0.191733 
162.10173 0.022126 
162.127731 0.134889 
162.959808 0.037909 
162.990982 0.161856 
163.006744 0.366799 
163.027817 0.354322 
163.045334 0.055415 
163.075409 0.164097 
163.122055 0.026144 
164.07045 0.1628 
164.106918 0.146993 
164.995865 0.048387 
165.022339 0.62728 
165.054764 0.298389 
166.049805 0.05252 
166.0858 0.02152 
166.98317 0.045151 
167.001434 2.785433 
167.055527 0.026559 
167.086258 0.022626 
168.007874 0.887533 
168.080536 0.10417 
168.93663 0.028934 
168.96138 0.019678 
169.017288 1.212752 
169.034561 0.155024 
169.064697 0.118863 
169.075653 0.082316 
169.979996 0.103637 
170.036179 0.042716 
170.04422 0.042534 
170.059418 0.022056 
170.096436 0.169198 
170.962158 0.524123 
170.995392 1.204544 
171.032761 0.204565 
171.06282 0.019025 
171.080246 0.180908 
171.091583 0.229189 
171.992615 0.314648 
172.0755 0.254109 
172.087326 0.0191 
172.112061 0.239301 
172.942505 0.027284 
173.012024 0.348962 
173.047821 0.018587 
173.070953 0.036466 
173.082642 0.028385 
173.096466 0.021967 
173.106888 0.02171 
174.006836 0.027326 
174.054962 0.08047 
174.091415 0.126069 
174.127823 0.211218 
174.650131 0.031327 
174.990295 0.025518 
175.006577 0.284792 
175.027786 0.827492 
175.03891 0.542913 
175.062424 0.03097 
175.086746 0.291988 
175.135696 0.025074 
176.070648 0.262862 
177.042282 0.563229 
177.989929 0.038633 
178.017731 0.11385 
178.086029 0.062789 
178.122696 0.022484 
178.987503 0.166528 
179.00148 1.014398 
179.022903 0.052965 
179.034103 0.064544 
179.995377 6.397618 
180.008652 0.065277 
180.081192 0.026445 
180.102036 0.078519 
180.980133 0.022 
180.993256 0.604142 
181.017075 2.448773 
181.034653 0.10726 
181.064651 0.048181 
181.531448 0.025451 
182.012466 0.245205 
182.096176 0.055456 
182.11763 0.114327 
182.996368 0.597318 
183.032761 0.738104 
183.050674 0.064909 
183.068924 0.106379 
183.09137 0.026679 
184.004639 0.377588 
184.028076 0.287704 
184.063156 1.225085 
184.075668 0.061047 
185.012146 7.789009 
185.048355 0.123458 
185.071213 0.594294 
185.107239 0.036317 
185.949158 1.8155 
186.007843 0.054472 
186.091232 0.046487 
186.127701 0.03637 
186.947189 1.380637 
187.027679 0.64814 
187.043732 0.025102 
187.063873 0.10467 
187.07489 0.023835 
187.086227 0.100215 
187.678223 0.017844 
187.986679 0.021996 
188.070908 0.097422 
188.10704 0.058001 
189.00676 0.295253 
189.021866 0.025856 
189.042938 0.129438 
189.053711 0.022261 
190.049805 0.033655 
190.122864 0.021468 
191.001282 0.083724 
191.037231 0.035707 
191.997818 0.065572 
192.033096 0.192944 
192.993561 0.451891 
193.017197 4.488169 
193.074829 0.019298 
193.086151 0.327037 
194.011963 0.148746 
194.023682 0.028992 
194.081543 0.302801 
194.983719 0.03525 
194.996384 1.866066 
195.032928 0.218518 
195.0504 0.655835 
195.090286 0.024436 
195.876541 0.022526 
196.004456 0.321901 
196.028275 0.607637 
196.075729 0.050154 
196.278641 0.039717 
196.988144 0.022924 
197.0121 5.121726 
197.029419 0.367627 
197.048447 0.056688 
197.963882 0.022744 
198.006287 0.996906 
198.019897 0.088872 
198.090988 0.186952 
198.947205 0.032691 
198.991272 0.17988 
199.027878 1.435988 
199.045273 0.185438 
199.064468 0.117545 
199.076447 0.084754 
199.086487 0.684611 
200.000229 0.175156 
200.022903 0.188402 
200.058701 0.025464 
201.007233 2.154106 
201.065826 0.029659 
201.080627 0.022911 
201.102188 0.046793 
202.002472 0.019905 
202.017151 0.8117 
202.122177 0.061462 
203.02269 1.931229 
203.058716 0.069634 
203.081177 0.064178 
203.116898 0.019996 
203.260361 0.042372 
204.008102 0.480816 
204.050674 0.615892 
204.101669 0.030091 
205.004669 0.021704 
205.017334 0.76365 
205.053406 0.078459 
205.075775 0.026415 
206.012329 0.053581 
206.083755 0.017758 
206.977234 0.090005 
207.033096 0.451948 
207.053055 0.030177 
207.077621 0.042649 
207.991074 0.215321 
208.028168 0.775561 
209.012115 0.777142 
209.048523 0.138752 
209.34938 0.039389 
209.876129 0.095028 
209.924088 0.028412 
210.007568 0.51807 
210.020218 0.027725 
210.043777 0.213763 
210.066925 0.026354 
210.091202 0.198883 
210.991257 0.369431 
211.016296 0.306431 
211.027649 11.498073 
211.064209 0.156693 
211.08606 0.033652 
211.871811 0.352394 
211.890549 0.027162 
211.999481 0.061438 
212.023102 0.334788 
212.070816 0.026684 
212.094299 0.022368 
212.107193 0.024304 
213.007004 8.715012 
213.024551 0.06322 
213.043259 0.055145 
213.078812 0.051653 
213.10231 0.053959 
213.88765 0.156964 
214.014999 0.7323 
214.086502 0.022439 
214.123444 0.047402 
215.022675 2.715497 
215.039749 4.680309 
215.056519 0.165513 
215.095581 0.315812 
215.118088 0.022409 
215.564468 0.044566 
215.90242 0.018027 
215.982422 0.024401 
215.995712 0.05204 
216.018417 0.095687 
216.042419 0.356167 
216.101685 0.019347 
216.137878 0.020444 
217.003281 0.031698 
217.037613 0.473008 
217.071915 0.044769 
218.01236 2.223092 
218.884109 0.031119 
218.932022 0.044717 
218.984924 0.393892 
219.017639 0.091699 
219.032898 0.313625 
219.066071 0.028862 
219.091446 0.027554 
219.611664 0.539283 
220.028091 4.32308 
220.988312 0.053225 
221.01207 0.509139 
221.031784 0.033507 
221.048813 0.065847 
221.066315 0.089319 
221.107178 0.023649 
221.85495 0.018237 
222.007614 0.138592 
222.044449 0.024632 
222.06105 0.123724 
222.091125 0.021436 
222.898727 0.314717 
222.977402 0.05215 
223.015457 0.028288 
223.027679 0.85808 
223.045105 0.075221 
223.063736 0.051346 
223.122665 0.255959 
223.986862 0.021535 
224.023087 0.650128 
224.093719 0.019098 
224.107742 0.025333 
224.128784 0.042045 
224.983215 1.740527 
225.00708 0.578217 
225.043228 0.628363 
225.078308 0.037022 
225.102264 0.023171 
225.451675 0.037252 
226.002365 1.363945 
226.037918 0.048396 
226.086288 0.164662 
227.022858 0.563434 
227.038925 0.312702 
227.056641 0.088467 
227.070251 0.127892 
227.897232 0.499335 
227.935272 0.109923 
228.017929 1.340782 
228.895294 0.28071 
229.001907 2.04676 
229.026398 0.197003 
229.038498 1.655799 
229.073547 0.056294 
229.09581 0.025409 
229.111176 0.023075 
230.010025 0.201128 
230.034027 0.035591 
230.381714 0.034993 
231.017532 12.650481 
231.050766 0.028561 
232.027374 0.153714 
232.097946 0.022139 
233.049286 1.101168 
233.065674 0.116473 
233.10643 0.081256 
234.043442 0.060296 
234.090881 0.023481 
234.894821 0.136811 
235.028336 0.110776 
235.082138 0.061047 
235.89241 1.337607 
236.00029 0.093444 
236.022949 6.543308 
236.90004 0.026027 
237.043304 0.56873 
237.887421 0.409415 
238.038651 2.362472 
238.073196 0.025749 
238.122025 0.024088 
238.375641 0.036663 
238.895264 0.55848 
238.914139 0.028237 
239.010178 0.027343 
239.022781 1.259597 
239.05867 0.090609 
240.01799 0.578538 
240.031052 0.047451 
240.102707 0.026177 
240.909409 0.75554 
241.03833 0.070227 
242.033188 0.084026 
242.884583 0.122588 
243.017868 0.99701 
243.032684 0.569133 
243.126785 0.171304 
243.906967 0.098256 
243.926727 0.026156 
244.013321 0.811347 
244.026978 0.079203 
244.910095 0.029077 
244.93187 0.059199 
245.033707 0.14519 
245.050034 1.291652 
245.065994 2.181348 
245.907928 2.405765 
246.028809 0.373166 
246.053162 0.024491 
246.068039 0.115453 
246.905746 3.636386 
247.012741 0.959463 
247.026703 0.13873 
247.062927 0.164354 
247.872467 0.026906 
248.022369 0.430201 
249.028412 1.651699 
249.042603 0.210746 
249.10202 0.099647 
250.014923 0.023455 
250.038605 1.084474 
251.022934 0.023711 
251.059723 0.058457 
251.117874 0.783619 
252.017746 0.172991 
252.032257 0.056972 
252.12323 0.051386 
252.54451 0.037608 
252.905045 1.024618 
253.002594 0.025323 
253.017899 0.026671 
253.037842 0.148195 
253.90303 2.640742 
254.033646 1.235554 
254.902451 0.026808 
255.03302 0.064337 
255.051605 0.481413 
255.897705 1.156862 
256.013367 0.237038 
256.050842 0.071418 
256.906189 0.03189 
257.033508 0.109525 
257.048676 0.202435 
257.066559 0.039405 
257.912445 0.055714 
258.02887 0.089824 
259.013519 0.045237 
259.028381 0.039486 
260.021027 0.377373 
260.894958 0.204544 
261.02887 0.263879 
261.043091 2.681507 
261.059357 0.023034 
261.101593 0.021921 
261.138245 0.038955 
261.892517 0.537091 
262.038757 0.151688 
262.145203 0.022345 
263.061218 0.075623 
263.076752 0.936859 
264.017975 1.17183 
264.0784 0.027789 
265.038513 0.054369 
265.074066 0.079653 
265.097107 0.025673 
266.033569 0.068341 
268.012756 0.197591 
268.049286 0.321872 
269.069489 0.044445 
269.908325 0.03105 
270.043549 0.276758 
271.028046 1.075786 
272.057495 0.028927 
272.077179 0.033407 
273.044281 0.774796 
273.06076 5.317001 
273.778351 0.021948 
274.062988 0.879025 
275.042542 0.071867 
275.058746 0.639533 
276.049438 0.028819 
277.005402 0.065562 
277.096344 0.052572 
277.11377 0.037752 
277.901459 0.078643 
278.033081 0.172562 
279.054016 0.53222 
279.898071 0.803189 
280.899963 0.02542 
282.009064 0.031974 
282.027924 0.350522 
284.080627 0.040102 
284.894989 0.030121 
285.044586 0.068659 
286.022644 0.042894 
287.918243 0.271279 
287.992432 0.034569 
288.055145 0.092961 
288.91626 0.611418 
289.038361 4.237328 
289.055664 1.517978 
290.063324 2.868768 
291.053284 0.052419 
291.071198 12.347058 
292.073517 3.000072 
293.068817 1.30688 
295.194855 1.572433 
297.06488 0.049772 
297.907867 0.048276 
298.038818 0.028778 
299.102203 0.038487 
300.054016 0.095817 
301.039154 0.135969 
302.905548 0.090382 
303.053864 0.101242 
303.962372 0.019672 
304.012573 0.02873 
305.033722 0.129218 
305.087463 0.104231 
307.049072 1.902791 
307.067169 0.067502 
309.082001 1.85919 
310.084625 0.120211 
311.080231 0.030382 
313.039154 0.028467 
313.204865 10.100847 
313.224701 0.144161 
319.048187 0.025435 
319.836578 0.025087 
321.378357 0.027501 
325.060059 0.084276 
326.034485 0.021738 
328.048615 0.100743 
331.215363 3.87128 
336.049164 0.022731 
337.725159 0.023925 
338.985504 0.03779 
344.044098 0.023658 
346.060516 0.022348 
349.059601 0.018868 
354.02771 0.026366 
369.835938 0.021775 
382.528198 0.025605 
386.162018 0.028232 
389.623657 0.036766 
390.795197 0.033418 
392.147217 0.018783 
421.268005 0.042487 
425.943726 0.020345 
430.851044 0.021156 
430.885406 0.024269 
431.254883 0.026293 
435.90918 0.039288 
442.700653 0.017083 
445.45343 0.035207 
447.345886 0.13604 
448.349701 0.029694 
458.17865 0.027082 
463.747009 0.022844 
472.563599 0.018035 
END IONS

