BEGIN IONS
PEPMASS=1339.68
CHARGE=1+
COMPOUNDNAME=POLYMYXIN B SULFATE
LIBRARYQUALITY=3
SMILES=N/A
INCHIKEY=HFMDLUQUEXNBOP-UHFFFAOYSA-N
INCHI=InChI=1S/C56H98N16O13.H2O4S/c1-7-32(4)13-11-12-16-44(75)63-36(17-23-57)51(80)72-46(34(6)74)56(85)68-39(20-26-60)48(77)67-41-22-28-62-55(84)45(33(5)73)71-52(81)40(21-27-61)65-47(76)37(18-24-58)66-53(82)42(29-31(2)3)69-54(83)43(30-35-14-9-8-10-15-35)70-49(78)38(19-25-59)64-50(41)79;1-5(2,3)4/h8-10,14-15,31-34,36-43,45-46,73-74H,7,11-13,16-30,57-61H2,1-6H3,(H,62,84)(H,63,75)(H,64,79)(H,65,76)(H,66,82)(H,67,77)(H,68,85)(H,69,83)(H,70,78)(H,71,81)(H,72,80);(H2,1,2,3,4)
MSLEVEL=2
SOURCE_INSTRUMENT=N/A-ESI-QFT
FILENAME=library_mgf.mgf
SEQ=*..*
IONMODE=positive
ORGANISM=MONA
NAME=POLYMYXIN B SULFATE [M+K]+
PI=MoNA
DATACOLLECTOR=MoNA:VF-NPL-QEHF027926
PUBMED=N/A
SUBMITUSER=mwang87
TAGS=
SPECTRUMID=CCMSLIB00004721507
SCANS=27926
94.065086 0.455987 
95.060356 0.313584 
96.673874 0.095255 
97.075829 0.243202 
98.071243 0.639203 
98.096329 0.594582 
99.055336 0.383216 
100.075729 0.243843 
100.086884 12.653795 
101.070938 100.0 
102.054901 2.914669 
102.067924 0.280228 
102.074226 3.814042 
103.05423 2.260999 
104.751511 0.110434 
105.069962 0.130865 
106.877838 0.110255 
107.865364 0.11522 
109.07589 0.461435 
109.100967 0.23625 
109.44957 0.101918 
110.059982 0.415757 
110.071175 0.11532 
110.775215 0.109509 
111.055206 4.876331 
111.091568 2.005147 
112.075668 0.876851 
112.086838 2.222674 
113.070816 4.969079 
113.989014 0.097502 
115.086571 0.882836 
115.974258 0.102765 
118.097466 0.403251 
119.060097 0.107902 
119.08152 32.456207 
120.080734 63.560642 
120.394691 0.096424 
121.075951 4.558856 
121.084068 4.917705 
123.055191 8.475151 
123.091545 1.368866 
123.116669 2.502062 
124.058746 0.106921 
125.070908 0.484332 
127.086517 9.382938 
128.081726 3.22355 
128.090027 0.104877 
129.065735 2.410221 
130.086563 0.108456 
130.097275 0.173611 
131.117508 0.451778 
132.080643 1.691718 
136.086853 0.411948 
137.070847 8.515335 
138.066681 0.209733 
138.102432 5.109418 
139.086517 10.475626 
139.854019 0.115933 
140.070282 0.112541 
140.081741 9.052881 
140.118164 1.23817 
141.065659 5.11905 
141.102081 0.958305 
141.36615 0.112955 
141.406174 0.096493 
142.097595 0.242373 
144.138428 0.112304 
145.096863 0.339177 
148.086792 2.982015 
149.070862 11.127438 
150.055923 0.100276 
150.07428 0.308236 
150.102554 1.362992 
151.086548 0.499517 
151.191208 0.100043 
152.00676 0.103315 
152.08194 0.117945 
153.606583 0.118714 
154.097427 0.982665 
155.081406 1.378637 
155.246536 0.091105 
156.113007 5.163818 
157.028458 0.307036 
157.097015 11.791909 
157.108322 5.839715 
157.115387 0.098523 
157.144897 0.114903 
158.092102 8.093683 
158.128647 0.11564 
158.153763 1.867486 
159.090408 0.09635 
159.112244 0.089434 
160.057159 0.091372 
163.805145 0.093017 
164.081818 0.58337 
164.403778 0.108722 
165.06572 0.481228 
165.102188 0.255699 
165.113373 0.543435 
166.097305 18.111547 
167.054977 0.240226 
167.081421 11.909949 
167.100723 0.823229 
167.129181 0.127392 
168.076675 1.899318 
168.084442 0.417355 
168.113068 0.822185 
169.096954 0.688775 
169.133423 2.711878 
170.09198 0.338881 
173.549103 0.111431 
173.746445 0.102349 
174.12355 4.845088 
174.131485 0.108142 
175.038345 0.103758 
175.086395 0.794049 
176.081635 0.252264 
176.118301 0.112936 
177.102219 0.553127 
177.242554 0.094661 
178.097366 0.423361 
179.128937 0.380528 
180.113464 0.106724 
181.029755 0.098446 
182.092224 2.335266 
183.076508 0.235317 
183.123978 43.943077 
184.077011 0.113103 
184.098633 0.687194 
184.10791 43.27644 
184.127472 3.39098 
185.091919 8.284602 
185.111679 2.412136 
186.091446 1.812266 
186.159805 0.257008 
187.124329 0.123788 
188.102707 0.197102 
191.68306 0.109878 
193.108154 1.829291 
194.092407 5.952179 
194.12912 0.226571 
195.076279 0.253128 
195.123947 4.260406 
195.185333 1.361688 
196.039612 0.11508 
196.107971 2.007513 
196.144501 1.199315 
196.170105 0.317557 
197.12851 0.257795 
197.13887 0.226866 
201.102585 0.399907 
201.13446 31.034504 
201.144608 0.141324 
202.118423 39.417061 
202.13472 3.433044 
203.106232 0.110788 
203.118576 5.584572 
204.112793 0.252416 
204.121796 0.108097 
204.149536 1.59538 
205.108398 1.294272 
205.153229 0.12402 
206.092285 1.287446 
206.128403 0.132556 
209.102982 1.316126 
209.12796 0.227728 
209.164413 1.103476 
210.086945 0.226591 
210.124054 0.57546 
210.169815 0.112581 
211.11882 11.395196 
212.102844 6.983043 
212.122314 0.303472 
213.065735 0.281186 
213.102325 3.748093 
213.134384 1.783915 
213.170944 1.432825 
214.049789 5.890072 
214.087708 0.116851 
214.118225 0.116238 
214.154938 11.196999 
214.164734 0.316455 
215.158051 0.420784 
218.962936 0.100537 
219.146072 2.713744 
220.107758 0.846877 
221.103149 0.136938 
221.139648 0.720286 
222.055191 0.108606 
222.123428 1.34364 
222.134903 1.834017 
223.118713 4.460631 
223.154678 0.447426 
223.180435 7.187198 
224.102859 2.013942 
224.139343 5.584629 
224.18367 0.219131 
225.042648 0.416228 
225.133621 0.120219 
227.175186 1.745566 
227.318481 0.102801 
229.12999 0.155415 
229.931396 0.118279 
230.128677 18.930576 
231.076538 0.318742 
231.112595 3.769691 
231.12355 0.137254 
231.133011 1.112162 
232.060577 1.18387 
232.108002 0.610113 
233.164749 40.082367 
233.177933 0.106669 
233.574554 0.102456 
233.899048 0.099412 
234.168182 5.53333 
235.119003 0.126026 
235.472244 0.102994 
237.134552 0.574118 
238.118423 1.599796 
239.11319 0.147987 
239.150055 10.506889 
239.161743 0.338895 
240.065659 0.274602 
240.14505 12.398173 
240.179718 0.106651 
240.206818 2.023729 
241.129181 8.809567 
241.15007 0.215316 
241.190903 8.719982 
242.134186 0.112689 
242.17453 0.110559 
242.194107 0.128006 
243.14888 1.43346 
247.143204 0.224164 
247.895798 0.103888 
248.138992 17.86648 
249.134125 3.703179 
249.634125 0.106078 
250.118256 3.04132 
250.153717 0.113115 
252.206894 0.908394 
253.095764 0.10731 
253.130066 0.259398 
253.190063 0.119729 
256.176636 0.255266 
257.09198 5.705293 
257.160675 8.011712 
258.123383 5.830624 
258.156677 1.462318 
258.192627 0.295669 
259.107239 0.141862 
261.159454 15.068167 
262.163513 1.234769 
262.687866 0.111741 
265.12912 0.631331 
266.161194 9.4373 
266.186096 1.135159 
267.14505 12.208701 
267.161011 0.557889 
268.108612 0.094316 
268.144562 1.213837 
269.163635 0.128992 
269.19635 0.10667 
270.112 1.212125 
270.157898 1.352825 
271.143402 1.621086 
276.133362 0.114031 
276.146179 0.440178 
277.129852 0.246223 
278.092468 4.469072 
278.220337 0.119919 
279.076569 1.16995 
279.206238 0.1372 
280.182495 0.469197 
280.201416 6.609829 
280.238861 0.101229 
281.204468 0.140256 
281.727112 0.118846 
282.21759 0.425806 
283.201843 0.809387 
284.139618 0.628271 
284.17157 37.663906 
284.186371 0.838972 
285.155304 12.295978 
285.172943 8.07086 
286.156616 1.758382 
287.740601 0.119759 
288.146271 0.148991 
288.168976 0.132357 
292.203064 0.155034 
294.155579 2.064495 
294.577759 0.106267 
295.118774 0.200348 
295.139191 0.287691 
295.156769 0.447602 
296.102905 13.11159 
296.140259 0.128487 
296.20813 8.217513 
296.232941 3.60476 
297.105957 0.290084 
297.147675 0.227558 
297.191681 4.306314 
297.216278 6.056017 
297.236115 0.101676 
298.193359 0.341753 
299.174744 0.779935 
301.197449 0.310437 
302.081879 0.108046 
302.181824 20.695753 
302.198059 0.815376 
303.11261 0.335268 
303.182983 4.718598 
304.163513 0.206385 
304.188049 0.258499 
305.172699 0.350928 
306.121277 0.106174 
306.155701 1.552703 
306.19278 0.767418 
306.217163 1.251888 
307.176392 0.236776 
308.205933 0.092418 
312.165253 0.81768 
312.183044 0.640487 
313.12912 0.11175 
313.166107 1.27571 
314.113617 1.133525 
314.149719 1.101226 
314.218719 0.382243 
315.157166 0.101997 
315.216034 0.22182 
316.133728 0.677342 
316.201416 2.128398 
317.115051 0.109736 
317.20575 0.131551 
317.415253 0.113465 
321.172211 0.116385 
322.197571 0.305271 
323.182373 3.723251 
323.243103 0.142386 
324.166351 1.588001 
324.204193 0.109855 
324.227325 1.107146 
325.164307 0.114462 
326.18576 6.960081 
330.192505 1.459751 
331.175446 0.504669 
332.172791 0.099252 
334.144562 0.327955 
339.8573 0.100066 
340.211304 0.138314 
341.157623 0.128045 
341.192383 1.407583 
341.211243 0.128396 
341.253876 0.114735 
342.193146 0.38733 
342.237915 0.216738 
343.212341 3.844182 
344.196381 1.748441 
347.993835 0.10522 
349.198151 1.6898 
350.180786 0.949357 
351.181396 0.267359 
351.214569 0.151278 
352.164215 0.434182 
352.233948 0.292958 
359.219879 0.144555 
360.121185 0.098437 
360.14502 1.153746 
360.239044 3.187006 
361.127625 0.269161 
361.222656 6.939014 
361.566467 0.107985 
362.225525 0.714246 
362.254456 1.672578 
366.225037 0.94373 
367.208435 4.978403 
368.190125 0.454973 
369.196442 0.122303 
371.180267 0.102655 
371.207245 6.028641 
372.211487 0.176418 
378.15567 1.571744 
378.385468 0.121154 
379.279572 0.3312 
380.26651 0.371539 
381.158875 0.250808 
381.226257 0.120978 
384.235046 2.920946 
385.218506 4.379023 
386.219421 1.544822 
387.215149 0.523546 
394.217804 0.121446 
396.202179 0.312943 
397.222595 0.12127 
398.185699 1.738307 
399.169769 26.295088 
400.173157 3.230804 
402.245361 1.024729 
403.226807 1.380267 
403.24707 0.906396 
404.230103 0.127964 
405.225983 0.225864 
406.280823 0.235897 
407.262543 0.116182 
408.238831 0.852053 
409.220856 0.224161 
410.275909 0.101817 
413.229034 1.029903 
414.212677 0.304811 
416.197632 0.16105 
418.212128 2.626714 
423.243378 0.116868 
424.291412 1.38485 
425.268799 0.903519 
426.249298 1.370195 
427.255646 0.133222 
428.506989 0.123771 
431.239807 5.838064 
432.244873 0.234738 
432.517609 0.108349 
435.17688 0.249982 
436.222809 4.836385 
441.258087 0.643463 
441.318115 1.863302 
442.240906 0.2535 
442.292236 0.449077 
443.276093 14.845652 
444.258362 2.448415 
444.282074 0.635672 
449.250183 7.714199 
450.25238 1.522054 
453.259705 0.600599 
460.301849 0.622885 
461.286194 6.601286 
462.287323 0.702218 
462.319733 0.447052 
467.272766 0.488093 
469.252167 0.126644 
470.248688 0.130197 
471.272034 1.375255 
481.223022 4.885062 
482.222931 0.216415 
483.492859 0.12189 
484.733276 0.109071 
485.282806 1.812074 
488.336365 0.11995 
499.233673 3.292026 
499.302124 0.779079 
500.300476 0.931604 
503.296112 0.229116 
507.325623 0.20921 
508.301056 0.341219 
509.286285 0.864992 
509.355103 0.111591 
510.338989 0.361688 
513.292786 0.112428 
516.472168 0.100684 
517.313049 0.22677 
524.354309 3.000252 
525.214905 0.136614 
525.326904 1.110785 
526.313171 1.654548 
527.296143 0.313451 
531.301575 0.119896 
534.337158 0.118548 
542.358459 0.133994 
543.339722 6.511818 
544.327026 2.34819 
545.304993 0.10832 
553.320618 0.149917 
560.747375 0.122243 
561.349487 0.285999 
562.334473 0.994809 
568.333069 0.121668 
579.336121 0.12085 
582.348999 1.538134 
583.333923 0.566998 
583.723816 0.107127 
585.345276 0.11222 
586.351074 0.115795 
595.124695 0.107 
600.361389 1.02822 
607.329346 0.118429 
607.391663 0.119499 
609.36084 0.110692 
614.340576 0.117029 
615.135437 0.103527 
621.781494 0.105911 
625.400024 0.399931 
626.379028 0.796829 
627.359314 0.284959 
631.361633 0.139858 
632.351624 0.32144 
634.751038 0.121141 
636.36554 0.150116 
643.40918 0.808153 
644.386597 2.838244 
645.385864 0.293755 
646.92688 0.12848 
648.355652 0.123732 
650.359802 0.222981 
656.384888 0.120038 
662.396301 0.781836 
665.391479 0.148911 
681.879578 0.108279 
682.412231 1.447357 
683.40332 0.416093 
684.394592 0.121449 
692.389221 0.239263 
699.430908 0.235707 
700.417114 0.620273 
708.441956 0.120779 
709.415588 0.119203 
710.022156 0.144506 
710.074463 0.227093 
710.174255 0.204083 
710.223694 0.17177 
710.300598 0.49749 
710.411133 0.315668 
711.408997 0.246023 
716.457397 0.116879 
726.441162 2.353854 
727.42749 2.971691 
728.428772 0.520656 
735.304688 0.108828 
740.414612 0.112546 
744.450012 7.671194 
745.446045 3.335797 
746.445251 0.443841 
756.451843 0.132413 
762.454712 0.185961 
770.452515 0.097935 
780.451843 0.383951 
782.473083 0.105376 
825.529724 0.136365 
827.505859 0.195355 
844.520874 0.144867 
848.483704 0.110106 
883.516052 0.139356 
884.504822 0.945202 
904.558899 0.108627 
928.532104 0.139238 
929.535522 0.125078 
931.539307 0.116299 
943.224487 0.127159 
946.56311 0.124159 
971.761597 0.115511 
977.710205 0.130759 
1106.694824 0.118964 
1107.682373 0.122021 
1123.696045 0.11662 
1124.707275 0.113972 
1125.691284 0.128127 
1137.683472 0.118528 
1151.696655 0.143566 
1167.729492 0.802467 
1168.720215 1.104457 
1181.705322 0.708113 
1182.707031 0.262142 
1185.739502 0.573188 
1186.734131 0.321223 
1202.676392 0.126521 
1211.713745 0.403486 
1225.734985 2.211527 
1226.735962 1.246301 
1292.809692 0.126231 
1341.284668 0.118037 
END IONS

