BEGIN IONS
PEPMASS=453.0
CHARGE=1+
COMPOUNDNAME=MoNA:2349648 Ribostamycin
LIBRARYQUALITY=3
SMILES=N/A
INCHIKEY=NSKGQURZWSPSBC-DLBSIDPUSA-N
INCHI=InChI=1S/C17H34N4O10/c18-2-6-10(24)12(26)8(21)16(28-6)30-14-5(20)1-4(19)9(23)15(14)31-17-13(27)11(25)7(3-22)29-17/h4-17,22-27H,1-3,18-21H2/t4-,5+,6-,7-,8-,9+,10-,11-,12-,13-,14-,15-,16-,17-/m1/s1
MSLEVEL=2
SOURCE_INSTRUMENT=LC-ESI-QQ-LC-ESI-QQ
FILENAME=output_mgf.mgf
SEQ=*..*
IONMODE=
ORGANISM=MONA
NAME=MoNA:2349648 Ribostamycin [M-H]-
PI=MoNA
DATACOLLECTOR=MoNA
PUBMED=N/A
SUBMITUSER=mwang87
TAGS=
SPECTRUMID=CCMSLIB00000571948
SCANS=9199
59.1 2.368421 
97.2 33.157895 
118.3 1.315789 
154.6 1.315789 
214.8 2.631579 
275.5 2.105263 
287.4 13.684211 
288.3 8.684211 
305.5 1.578947 
306.5 20.263158 
321.6 8.947368 
393.3 2.105263 
453.4 100.0 
END IONS

