BEGIN IONS
PEPMASS=174.0
CHARGE=1+
COMPOUNDNAME=MoNA:2243029 (S)-2-amino-5-(aminocarbonyl)aminopentanoate
LIBRARYQUALITY=3
SMILES=N/A
INCHIKEY=RHGKLRLOHDJJDR-BYPYZUCNSA-N
INCHI=InChI=1S/C6H13N3O3/c7-4(5(10)11)2-1-3-9-6(8)12/h4H,1-3,7H2,(H,10,11)(H3,8,9,12)/t4-/m0/s1
MSLEVEL=2
SOURCE_INSTRUMENT=LC-ESI-QQ-LC-ESI-QQ
FILENAME=output_mgf.mgf
SEQ=*..*
IONMODE=
ORGANISM=MONA
NAME=MoNA:2243029 (S)-2-amino-5-(aminocarbonyl)aminopentanoate [M-H]-
PI=MoNA
DATACOLLECTOR=MoNA
PUBMED=N/A
SUBMITUSER=mwang87
TAGS=
SPECTRUMID=CCMSLIB00000565791
SCANS=3043
42.2 1.290166 
59.2 0.121714 
83.4 1.363194 
84.5 0.219085 
85.1 1.630964 
113.3 0.97371 
115.3 3.213242 
129.8 0.26777 
131.0 100.0 
131.9 7.327167 
142.1 1.144109 
143.6 0.073028 
156.5 0.073028 
159.1 0.754625 
174.5 0.097371 
END IONS

