BEGIN IONS
PEPMASS=414.155
CHARGE=1+
COMPOUNDNAME=Massbank: Noscapine
LIBRARYQUALITY=3
SMILES=[H]C([H])([H])Oc(c([H])5)c(OC([H])([H])[H])c(C(=O)4)c(c([H])5)C([H])(O4)C([H])(N(C([H])([H])[H])1)c(c(OC([H])([H])[H])2)c(c([H])c(O3)c(OC([H])([H])3)2)C([H])([H])C([H])([H])1
INCHIKEY=AKNNEGZIBPJZJG-UHFFFAOYSA-N
INCHI=1S/C22H23NO7/c1-23-8-7-11-9-14-20(29-10-28-14)21(27-4)15(11)17(23)18-12-5-6-13(25-2)19(26-3)16(12)22(24)30-18/h5-6,9,17-18H,7-8,10H2,1-4H3
MSLEVEL=2
SOURCE_INSTRUMENT=ESI-LC-ESI-QTOF
FILENAME=Massbank_ESI_positive_8_1_2014_peaks.mgf
SEQ=*..*
IONMODE=Positive
ORGANISM=MASSBANK
NAME=Massbank: Noscapine [M+H]+
PI=Putative Massbank Match
DATACOLLECTOR=Massbank
PUBMED=N/A
SUBMITUSER=mwang87
TAGS=
SPECTRUMID=CCMSLIB00000206278
SCANS=1537
179.0705 421.724 
206.0802 178.353 
220.0957 10000.0 
248.0894 108.057 
323.0893 143.6 
324.1013 142.657 
350.0796 204.564 
352.0977 131.285 
353.1017 2458.95 
365.1023 898.521 
368.1159 117.262 
378.1218 126.772 
381.1184 145.92 
383.1109 121.494 
396.1104 2283.274 
414.1509 9767.976 
END IONS

