BEGIN IONS
PEPMASS=499.28
CHARGE=1+
COMPOUNDNAME=(3E,5S,7R,8R,11E,13S,15R,16R)-3,5,7,11,13,15-hexamethyl-8,16-bis(1,3-oxazol-5-ylmethyl)-1,9-dioxacyclohexadeca-3,11-diene-2,10-dione
LIBRARYQUALITY=3
SMILES=N/A
INCHIKEY=LAJRJVDLKYGLOO-HLRFMGGZSA-N
INCHI=InChI=1S/C28H38N2O6/c1-17-7-19(3)25(11-23-13-29-15-33-23)35-28(32)22(6)10-18(2)8-20(4)26(12-24-14-30-16-34-24)36-27(31)21(5)9-17/h9-10,13-20,25-26H,7-8,11-12H2,1-6H3/b21-9+,22-10+/t17-,18-,19+,20+,25+,26+/m0/s1
MSLEVEL=2
SOURCE_INSTRUMENT=N/A-ESI-QFT
FILENAME=library_mgf.mgf
SEQ=*..*
IONMODE=positive
ORGANISM=MONA
NAME=(3E,5S,7R,8R,11E,13S,15R,16R)-3,5,7,11,13,15-hexamethyl-8,16-bis(1,3-oxazol-5-ylmethyl)-1,9-dioxacyclohexadeca-3,11-diene-2,10-dione [M+H]+
PI=MoNA
DATACOLLECTOR=MoNA:VF-NPL-QEHF019221
PUBMED=N/A
SUBMITUSER=mwang87
TAGS=
SPECTRUMID=CCMSLIB00004710284
SCANS=19221
50.075531 0.062871 
50.852715 0.172632 
50.979523 0.177691 
52.789864 0.091227 
53.002483 0.508514 
53.038849 6.074129 
53.179413 0.161223 
53.760189 0.12543 
53.807644 0.133023 
53.820774 0.165545 
54.034077 5.706466 
54.107666 0.183295 
54.395344 0.132678 
54.910187 0.174036 
54.954327 0.049402 
55.018055 0.981793 
55.054459 10.999816 
55.460945 0.179129 
56.049717 3.362048 
56.149422 0.060164 
56.569965 0.12524 
57.033714 7.329679 
57.069916 0.107533 
57.098194 0.16735 
57.81237 0.133001 
58.146542 0.157318 
58.657913 0.055402 
58.867493 0.145504 
59.049316 100.0 
60.043758 0.187161 
60.052593 0.597219 
60.143394 0.05957 
62.089413 0.072305 
62.574051 0.074315 
62.580425 0.10562 
63.295452 0.066838 
64.323235 0.134455 
65.038651 5.832881 
65.574074 0.095643 
66.475891 0.114617 
66.666359 0.157614 
66.853485 0.110113 
67.054268 64.440025 
68.04953 1.909863 
68.05761 1.971697 
68.759811 0.169986 
69.03347 8.851216 
69.06987 12.010969 
69.303192 0.130095 
71.04908 0.554078 
71.98555 0.177842 
72.458694 0.135008 
73.864059 0.175145 
76.268333 0.148569 
76.382118 0.076684 
77.038528 0.699775 
77.388023 0.167237 
77.534538 0.182922 
78.614159 0.048871 
78.673027 0.139334 
79.054146 27.894997 
80.049347 4.168014 
80.057503 0.612665 
80.863327 0.128419 
81.033272 0.356315 
81.057098 0.412852 
81.069809 37.309547 
82.028664 90.547882 
82.031441 1.049621 
82.064972 2.460339 
82.073112 1.337311 
83.031975 1.706407 
83.036453 9.190582 
83.049065 2.432631 
83.085403 0.863286 
84.011093 0.077078 
84.044273 3.148651 
85.023827 0.075536 
85.06472 2.226611 
85.212349 0.17732 
88.136642 0.146066 
91.054131 31.924065 
91.169395 0.04888 
91.375702 0.168504 
92.057426 0.626608 
92.061951 2.267897 
92.184113 0.112885 
93.057175 1.155266 
93.069771 50.739399 
94.065025 23.598135 
94.073051 2.70304 
95.049004 28.936537 
95.068184 0.069026 
95.07283 0.08099 
95.085411 39.742592 
95.088921 0.254468 
95.776161 0.064176 
96.04425 24.800226 
96.051987 0.346537 
96.080605 5.036471 
96.088684 1.394202 
97.064705 1.890766 
99.470573 0.11895 
100.272339 0.152345 
100.370628 0.111412 
101.310982 0.060099 
101.517143 0.142546 
102.267761 0.047465 
103.054054 1.458165 
104.735275 0.090842 
105.044586 1.907249 
105.069794 34.59758 
106.032326 0.145711 
106.064903 1.221178 
106.073212 1.258438 
106.0774 0.096452 
106.147118 0.121678 
107.049011 4.808542 
107.085411 64.252098 
108.044151 0.426746 
108.080605 5.667555 
108.088722 3.531134 
109.051987 0.237548 
109.064674 15.511337 
109.101036 15.220776 
109.606522 0.145756 
109.872978 0.217969 
110.059875 8.363452 
110.09626 1.271029 
110.104134 0.173603 
110.156273 0.113127 
110.562645 0.178346 
110.664497 0.095867 
111.032822 0.148948 
111.080315 2.942272 
112.083626 0.158167 
112.921677 0.146395 
113.059509 4.75569 
115.054047 0.35947 
117.069695 13.355122 
117.530594 0.10144 
118.064835 0.546722 
118.073448 0.131583 
118.996964 0.118342 
119.060104 0.269216 
119.085472 20.941456 
119.502182 0.152462 
120.044243 0.861676 
120.080597 1.912483 
120.088593 0.131039 
120.865021 0.122379 
121.064583 7.937433 
121.101006 44.810345 
121.351524 0.138906 
122.023666 0.516782 
122.059868 13.619625 
122.096382 0.271382 
122.104317 2.957058 
122.108925 2.322883 
123.080215 5.99196 
123.117355 0.199349 
124.075462 1.102155 
124.323669 0.132867 
126.090958 0.055004 
128.061844 0.711153 
129.069672 7.928366 
130.077698 2.232404 
130.501602 0.123769 
130.839981 0.096266 
130.982391 0.048218 
131.085312 17.611822 
132.080521 0.427755 
132.088776 0.385311 
133.075684 0.81408 
133.100967 9.757282 
134.059845 4.370231 
134.096146 3.359304 
135.080185 6.431466 
135.116623 13.888751 
135.252518 0.058481 
136.075638 8.430623 
136.12001 0.329949 
136.77536 0.060486 
137.046951 2.445115 
137.095963 2.129412 
138.091248 12.060282 
138.966995 0.051147 
139.09433 0.05218 
139.11171 0.051141 
139.621216 0.069487 
139.721619 0.166313 
140.070282 0.426821 
141.054611 0.126645 
141.069275 0.328535 
141.615021 0.121101 
142.077515 0.693376 
142.091553 0.123715 
143.085312 0.93119 
143.304031 0.057717 
144.080307 0.411735 
144.093201 14.295462 
145.064651 0.097784 
145.088593 0.130484 
145.100937 5.790903 
146.096146 0.912729 
147.080444 0.079608 
147.116913 0.155096 
148.075439 4.756755 
148.098175 0.080591 
148.111542 0.36369 
148.512161 0.087135 
149.095886 2.506675 
149.132401 0.46327 
150.09111 2.053116 
151.874298 0.180916 
152.214371 0.065158 
154.049606 0.972907 
154.077423 0.489461 
154.086014 0.074246 
155.019058 0.152925 
155.05748 0.439116 
155.528442 0.143044 
156.880661 0.170123 
157.100616 0.557061 
158.095688 0.102029 
158.759323 0.109165 
159.116562 17.120977 
160.075348 0.191844 
160.087555 0.181343 
160.111984 1.101211 
160.119705 0.689673 
161.095078 0.333808 
161.119492 0.495227 
161.753357 0.168059 
162.09111 1.280669 
163.111374 1.443728 
163.618301 0.13297 
164.469009 0.136391 
165.041824 1.704702 
165.164444 0.132505 
167.057571 0.063265 
168.06517 3.813563 
168.146851 0.197981 
168.542191 0.061872 
169.10051 0.13567 
169.890869 0.208693 
170.044464 0.338997 
170.080566 0.059004 
171.10408 0.781746 
172.087997 2.166595 
174.091034 0.178896 
175.112015 0.169037 
176.070221 1.344592 
176.1064 0.095796 
176.143005 0.874308 
177.127335 0.264428 
178.625122 0.124157 
182.045334 0.088397 
182.080948 2.702934 
183.052414 12.064965 
183.08403 0.107411 
186.020752 0.138834 
186.076233 0.212161 
187.11171 0.650826 
187.81459 0.128467 
190.692963 0.171427 
191.615692 0.059249 
193.407959 0.126597 
194.08078 0.17998 
196.055603 0.083184 
198.075806 9.763885 
199.079208 0.063449 
201.4646 0.111686 
201.714645 0.120194 
201.740707 0.178143 
202.843643 0.062737 
203.316833 0.087348 
204.098419 0.183355 
204.138184 0.642299 
206.080566 0.081163 
209.104492 0.419084 
209.839935 0.17497 
210.564819 0.153173 
211.160538 0.156432 
212.0914 0.141163 
219.833496 1.786204 
219.862656 0.156029 
224.12886 0.147623 
225.713257 0.06481 
228.11203 0.152172 
232.24469 0.113784 
237.21225 0.064784 
239.313049 0.122261 
240.908813 0.056033 
243.301987 0.062191 
246.684784 0.114347 
250.284668 0.168203 
254.38858 0.117416 
260.421692 0.137424 
267.938324 0.137102 
270.703674 0.129163 
299.279175 0.183722 
305.573364 0.148468 
307.857544 0.150398 
308.42334 0.070366 
311.815796 0.168184 
312.742889 0.135198 
322.337219 0.063966 
327.552246 0.225677 
335.305206 0.14614 
336.953705 0.124781 
343.432373 0.123405 
364.022614 0.126418 
366.833862 0.062093 
377.277435 0.204612 
379.581726 0.067391 
380.61084 0.130123 
387.76355 0.059394 
407.966217 0.165603 
412.330902 0.104257 
417.741577 0.106235 
421.345978 0.065124 
421.787628 0.136397 
423.403961 0.079005 
436.391602 0.05295 
463.252502 0.158742 
470.242584 0.055969 
476.423096 0.074008 
500.0961 0.117698 
502.840118 0.211088 
503.796875 0.054972 
521.506592 0.117238 
END IONS

