BEGIN IONS
PEPMASS=600.337
CHARGE=1+
COMPOUNDNAME=destruxin A
LIBRARYQUALITY=3
SMILES=N/A
INCHIKEY=XIYSEKITPHTMJT-UHFFFAOYSA-N
INCHI=InChI=1S/C29H47N5O7/c1-9-12-21-27(38)34-16-11-13-20(34)26(37)31-23(18(5)10-2)28(39)33(8)24(17(3)4)29(40)32(7)19(6)25(36)30-15-14-22(35)41-21/h9,17-21,23-24H,1,10-16H2,2-8H3,(H,30,36)(H,31,37)
MSLEVEL=2
SOURCE_INSTRUMENT=N/A-ESI-QFT
FILENAME=library_mgf.mgf
SEQ=*..*
IONMODE=positive
ORGANISM=MONA
NAME=destruxin A [M+Na]+
PI=MoNA
DATACOLLECTOR=MoNA:VF-NPL-QEHF017774
PUBMED=N/A
SUBMITUSER=mwang87
TAGS=
SPECTRUMID=CCMSLIB00004708837
SCANS=17774
50.44804 0.027546 
50.735374 0.06529 
51.028828 0.047974 
51.710407 0.024522 
51.845448 0.03001 
51.954273 0.071969 
52.576706 0.067156 
52.703999 0.053775 
53.134174 0.019684 
53.622917 0.039969 
54.364498 0.019268 
54.380939 0.061665 
54.487743 0.056719 
54.505756 0.071201 
54.925583 0.052575 
55.032433 0.039494 
55.054485 0.033828 
55.255142 0.068119 
56.003845 0.024342 
56.206387 0.018641 
56.512272 0.087299 
56.659405 0.068696 
57.0704 0.02398 
57.323364 0.101722 
58.065437 0.458913 
59.009155 0.018941 
59.26955 0.026516 
59.40033 0.065754 
60.826889 0.026503 
61.37141 0.062132 
62.610886 0.053788 
62.718475 0.079519 
62.763546 0.050222 
63.126919 0.026435 
63.175121 0.053216 
63.287693 0.049749 
63.515381 0.050886 
64.900558 0.073557 
65.382401 0.060097 
66.257523 0.056554 
67.105652 0.03908 
67.157005 0.052321 
67.919304 0.040874 
69.26368 0.052482 
69.356796 0.07698 
70.065247 3.677631 
71.920815 0.097643 
72.85997 0.018314 
72.991112 0.067906 
73.543259 0.056008 
73.765877 0.081249 
74.344131 0.038844 
75.176994 0.059294 
75.191643 0.076052 
76.264191 0.039881 
76.42955 0.080188 
76.978607 0.031503 
77.918022 0.085971 
81.033554 1.188435 
82.398476 0.084908 
82.777939 0.051931 
83.25885 0.047813 
83.524559 0.051507 
84.393715 0.063079 
84.472977 0.081282 
85.019005 0.084619 
86.060127 0.423883 
86.096458 15.632356 
86.280502 0.064302 
86.5354 0.025246 
87.099838 0.183013 
87.143959 0.055941 
87.28907 0.02695 
89.017395 0.054829 
90.204308 0.067382 
90.614311 0.06019 
91.579544 0.057882 
93.545235 0.056742 
94.190605 0.026578 
95.209869 0.053201 
95.808182 0.03672 
96.288315 0.028874 
97.07827 0.081035 
98.700447 0.030909 
101.087608 0.040687 
101.325729 0.072762 
101.438972 0.026383 
101.708389 0.038009 
101.825638 0.024913 
102.329613 0.024408 
103.822449 0.049927 
104.224678 0.085765 
104.767769 0.056324 
105.517899 0.084386 
105.689835 0.054252 
110.354836 0.026896 
110.758575 0.03632 
111.100624 0.037451 
111.973938 0.04754 
112.036659 0.047957 
113.498589 0.086367 
113.615738 0.062565 
114.055023 1.984475 
114.091324 0.592651 
114.939621 0.084379 
118.759041 0.018497 
119.344078 0.062693 
119.842232 0.061764 
123.741241 0.019632 
124.036736 0.064857 
125.25296 0.020128 
126.310905 0.101985 
126.924652 0.079134 
127.816177 0.096783 
128.669128 0.066025 
129.384125 0.097823 
131.407059 0.074092 
132.038528 0.058161 
132.276443 0.07331 
132.298843 0.085818 
132.419891 0.038734 
134.138855 0.055234 
135.052933 0.42139 
136.037262 0.254829 
138.127747 0.071152 
140.624664 0.052766 
140.762344 0.057064 
141.669296 0.104795 
141.988251 0.058859 
142.086456 0.066396 
142.951553 0.069637 
144.596024 0.041224 
146.763779 0.068932 
148.123749 0.040706 
148.829819 0.048861 
148.972351 0.026134 
149.068283 0.084714 
150.080536 0.664192 
150.091492 13.627655 
151.084122 0.380752 
151.094757 0.127033 
151.892715 0.069714 
152.192581 0.068169 
153.233429 0.077592 
154.084 1.068646 
154.283783 0.057636 
156.953888 0.08971 
158.058655 0.029339 
158.858795 0.070688 
159.238983 0.090785 
161.392319 0.069034 
162.030182 0.053468 
163.5065 0.019927 
165.970123 0.080411 
167.05545 2.103858 
168.063034 0.109714 
168.10202 1.317452 
168.962875 0.081456 
172.073425 0.916457 
172.088852 0.0675 
172.10643 0.079252 
172.503128 0.083963 
173.0811 0.23651 
174.14122 0.019551 
175.390106 0.044543 
176.55986 0.054752 
177.112549 0.029566 
177.379929 0.074816 
178.086319 14.066851 
179.089645 0.416034 
179.449997 0.088577 
180.191818 0.057787 
181.133804 0.200473 
182.940125 0.068458 
183.329239 0.100008 
186.516174 0.074534 
189.099808 0.084473 
190.084091 1.123703 
194.118134 0.055738 
195.074158 1.02432 
195.596069 0.021578 
195.947647 0.091317 
197.089767 18.756781 
198.093475 0.439376 
199.084183 0.08703 
199.158035 0.066595 
200.068329 2.698927 
203.115494 1.019964 
205.131287 0.595197 
206.090164 0.272641 
206.120926 0.103323 
206.151886 0.288943 
206.8535 0.0719 
207.074097 0.513637 
210.149216 0.538541 
212.521683 5.23038 
213.567886 0.08701 
215.151825 0.033988 
217.094879 2.611492 
218.078918 3.444692 
220.047516 0.056689 
220.105667 0.023898 
220.142197 0.114372 
221.126114 6.718392 
221.640381 0.055591 
223.019577 0.073784 
225.084366 0.188828 
226.942596 0.05377 
227.486481 0.056676 
227.90065 0.050528 
231.110397 0.232302 
235.106003 0.338004 
235.141708 1.866822 
238.152756 2.343502 
238.228317 0.087798 
238.275925 0.070223 
238.495361 0.045068 
242.124573 0.036061 
243.584122 0.088514 
244.094971 0.063036 
244.884811 0.058498 
249.122467 0.159771 
249.157471 0.7501 
249.240814 0.030746 
249.725876 0.076293 
250.861053 0.045443 
254.563431 0.021919 
256.321625 0.106007 
256.368652 0.073942 
256.627716 0.061724 
257.12619 0.179546 
261.121185 0.745865 
262.125122 0.092624 
262.153168 0.436234 
263.175629 2.345898 
263.479034 0.023189 
266.11203 0.064144 
267.119202 0.259732 
267.821625 0.02018 
268.127136 0.999528 
268.997192 0.041632 
270.608124 0.052715 
271.105591 0.085863 
272.716858 0.080087 
279.131805 4.014983 
280.135834 0.109717 
280.80249 0.029043 
281.911469 0.04203 
285.157471 29.267307 
286.160706 4.3533 
287.175079 0.129417 
289.115234 0.066299 
290.099854 0.111809 
291.17041 0.063581 
294.690796 0.034783 
296.02121 0.061603 
297.434753 0.055938 
302.148224 0.035003 
303.168518 1.170937 
304.168488 0.23452 
304.186066 0.137882 
307.026703 0.063925 
307.126221 0.048655 
308.156921 0.028541 
310.173767 25.301266 
311.177246 3.405893 
317.111298 3.440789 
318.390961 0.057722 
326.184235 0.034245 
328.163513 3.115148 
329.167328 0.076381 
331.162872 10.385809 
332.165985 1.02003 
334.210968 0.044532 
338.168396 0.175522 
340.784912 0.033988 
342.178833 1.611617 
344.157959 0.081745 
344.194336 16.491182 
345.198151 2.195144 
346.17572 0.064703 
351.237549 0.161873 
355.726227 0.059544 
357.178253 13.520815 
358.181458 1.675631 
360.454498 0.067064 
360.699799 0.059431 
360.839417 0.115295 
364.184784 0.120135 
367.432373 0.065065 
371.598511 0.018558 
374.205109 4.637351 
375.207764 0.376638 
378.199829 1.304191 
382.246704 1.312493 
383.252625 0.034935 
384.189148 9.036628 
385.192139 0.959981 
387.23114 0.075414 
388.256378 0.073872 
391.195709 0.54488 
392.17926 0.03949 
392.652344 0.018285 
398.241608 0.348719 
400.184174 0.816697 
400.258789 0.168168 
403.184906 0.572008 
406.404236 0.104195 
416.216278 0.406462 
419.727295 0.081903 
423.257599 4.085557 
423.639587 0.076105 
424.260315 0.075368 
425.139221 0.09462 
425.247742 0.021986 
426.236481 4.111141 
426.861237 0.027613 
427.239502 0.212346 
428.215942 1.050332 
429.213989 0.075735 
430.19516 2.865773 
431.197723 0.08001 
433.242889 0.997655 
434.243134 0.045707 
442.57254 0.059321 
443.227142 0.274833 
444.246674 0.051857 
445.162872 0.044085 
445.245087 0.107622 
445.733643 0.028883 
445.935486 0.077586 
447.030212 0.063586 
449.236938 2.322953 
450.505096 0.02789 
457.207184 0.063681 
457.242401 3.532978 
457.2771 0.692289 
458.24469 0.202714 
459.223328 1.365408 
459.257294 7.801812 
460.261658 1.273957 
464.784241 0.046565 
465.754059 0.024378 
470.673523 0.021782 
473.274567 0.074027 
474.766754 0.073103 
483.294006 0.657139 
486.269257 0.781504 
487.252686 0.567734 
500.248718 0.565713 
500.482483 0.030519 
501.305511 0.130561 
502.262573 0.087627 
504.282654 0.03404 
511.28772 0.181782 
514.263794 2.553831 
514.443359 0.020349 
515.275513 0.125431 
516.282837 0.13923 
518.295044 4.914298 
519.298035 0.765872 
528.244019 4.577274 
528.31543 7.97161 
529.245911 0.503833 
529.319763 1.761902 
532.33075 0.070839 
535.396545 0.084667 
537.467407 0.045514 
542.258972 0.951586 
543.319092 0.027191 
545.702698 0.104407 
547.018188 0.029586 
551.95636 0.081217 
556.346375 0.083233 
568.389832 0.025262 
572.342163 23.958973 
573.345093 7.232228 
574.3526 0.10033 
576.553528 0.102128 
581.944641 0.074934 
595.661133 0.035332 
600.336365 100.0 
601.285278 0.120764 
601.339417 33.215233 
602.34259 4.024132 
608.157532 0.029988 
619.797424 0.05653 
621.192932 0.021384 
624.434387 0.037878 
END IONS

