BEGIN IONS
PEPMASS=425.379
CHARGE=1+
COMPOUNDNAME=3-Epilupeol
LIBRARYQUALITY=3
SMILES=N/A
INCHIKEY=MQYXUWHLBZFQQO-ISZJTHHZSA-N
INCHI=InChI=1S/C30H50O/c1-19(2)20-11-14-27(5)17-18-29(7)21(25(20)27)9-10-23-28(6)15-13-24(31)26(3,4)22(28)12-16-30(23,29)8/h20-25,31H,1,9-18H2,2-8H3/t20-,21+,22-,23+,24+,25+,27+,28-,29+,30+/m0/s1
MSLEVEL=2
SOURCE_INSTRUMENT=N/A-ESI-QFT
FILENAME=library_mgf.mgf
SEQ=*..*
IONMODE=negative
ORGANISM=MONA
NAME=3-Epilupeol [M-H]-
PI=MoNA
DATACOLLECTOR=MoNA:VF-NPL-QEHF005647
PUBMED=N/A
SUBMITUSER=mwang87
TAGS=
SPECTRUMID=CCMSLIB00004696710
SCANS=5647
50.333099 0.044045 
51.04549 0.038395 
53.197071 0.033701 
54.277473 0.04 
55.017509 0.046825 
55.549534 0.03844 
57.033176 0.496979 
57.9743 0.034071 
58.395336 0.037031 
59.012424 12.356517 
59.525856 0.040922 
60.015842 0.110251 
60.211224 0.039304 
61.075527 0.038857 
61.230553 0.034721 
61.887379 0.036388 
61.978142 0.250374 
61.986935 100.0 
61.996204 0.091434 
62.983845 0.106856 
63.37566 0.041683 
63.961021 2.985634 
63.962868 0.038672 
63.991196 0.608962 
64.968849 0.046526 
67.30378 0.035372 
69.033173 1.844611 
70.293144 0.037516 
70.483963 0.036421 
71.010368 0.044587 
71.012375 1.663948 
71.048775 0.368112 
72.015633 0.038112 
72.991692 1.396938 
73.02803 0.876695 
74.023315 0.822964 
74.217178 0.0391 
75.007317 1.518311 
75.572464 0.050964 
75.847687 0.034195 
76.968636 0.040945 
78.004723 0.0524 
78.63092 0.045953 
78.917488 0.042016 
78.957596 0.210068 
78.984512 11.2707 
78.987152 0.090993 
79.955948 5.659952 
80.963783 10.021599 
80.980293 0.425886 
81.03318 4.225016 
81.052574 0.042862 
82.959511 1.278523 
83.012543 0.046564 
83.04882 31.266911 
84.052139 1.248979 
85.028061 0.359636 
86.022797 0.048547 
86.240562 0.042454 
87.007355 0.899235 
87.04364 0.200195 
87.461464 0.047735 
89.023041 3.105585 
89.865036 0.04534 
90.026543 0.069263 
90.828857 0.043502 
91.020638 0.120304 
91.659897 0.039945 
92.570068 0.042003 
92.926643 3.598825 
93.033234 0.661419 
93.482079 0.040808 
93.971474 0.103031 
94.923637 1.035533 
94.979469 59.942169 
95.012794 0.041017 
95.395065 0.041534 
95.97892 0.306648 
95.982826 0.433706 
96.00769 0.081828 
96.579414 0.044087 
96.95871 34.036758 
96.975243 2.918579 
96.983536 0.143943 
97.028023 0.219141 
97.064423 0.832327 
97.608589 0.04028 
97.958153 0.243 
98.954567 3.182302 
98.962936 0.32635 
99.007431 1.336627 
99.043793 0.314865 
99.924423 1.756865 
100.932259 0.153611 
101.023148 1.025757 
101.059357 0.214941 
101.278763 0.039028 
101.890015 0.047469 
102.026466 0.051028 
102.054688 1.022468 
103.03833 0.05284 
103.918976 0.085292 
104.033943 0.69131 
104.404373 0.045807 
104.535965 0.044917 
105.93235 0.037599 
108.178253 0.040737 
108.305801 0.036971 
108.898415 0.042362 
108.995239 0.047311 
109.028038 0.106139 
109.064995 0.103877 
110.495613 0.044442 
110.974426 0.768915 
111.007927 0.048074 
111.043816 0.315558 
111.080193 3.000172 
112.083565 0.052891 
113.023071 1.465929 
113.059563 0.060222 
113.654785 0.043263 
114.02285 0.183324 
114.220169 0.043923 
115.019585 1.022047 
115.038902 0.203176 
115.075256 0.049953 
115.919373 1.478987 
116.685867 0.040757 
116.841438 0.037846 
116.927292 1.515015 
116.971237 1.618025 
117.018082 0.439708 
117.927322 0.160385 
118.049744 0.572385 
118.168945 0.036877 
118.940804 1.555128 
118.96817 2.51613 
119.015724 1.519822 
119.03373 0.834374 
119.048714 0.048026 
119.945671 8.973453 
121.028229 18.866554 
121.942741 1.23033 
122.031502 0.072786 
122.974228 0.066188 
123.043816 0.1027 
123.080414 0.05874 
124.033783 0.041831 
125.023117 0.135334 
125.095963 2.62676 
125.871941 0.445646 
125.891449 0.045906 
126.099617 0.049801 
127.038872 0.521493 
127.869164 0.087766 
128.034103 0.546622 
129.054398 0.051078 
129.193832 0.047969 
130.942902 0.6889 
131.033432 0.062252 
132.398743 0.042083 
132.955032 0.047661 
132.995132 0.180109 
134.731308 0.041765 
135.043869 0.163562 
135.080368 0.15037 
136.943222 0.114707 
137.023102 0.100631 
137.034332 0.042039 
137.059479 0.043172 
138.939819 0.047127 
139.07547 0.100557 
139.111526 0.150961 
141.015762 0.949385 
141.064728 0.040918 
141.866837 0.266454 
142.200699 0.043709 
142.979263 0.105075 
143.070175 0.044293 
143.106796 0.045059 
143.900146 0.062445 
143.990265 0.372116 
145.049332 0.540949 
146.964783 2.479282 
146.981827 0.514521 
147.043503 0.051496 
149.008453 0.367601 
149.023148 0.433125 
149.05954 0.620316 
149.070831 0.043422 
150.987686 7.225922 
151.987045 0.222115 
152.938385 1.386574 
152.966843 0.315248 
152.98497 0.222448 
153.090317 0.059019 
154.917435 0.060427 
154.935196 0.259916 
154.946381 0.052613 
155.070496 0.049416 
156.893875 0.044986 
156.932053 0.042162 
157.031357 0.347212 
157.122177 0.50286 
157.861984 0.215404 
158.891953 0.123047 
159.857407 0.046828 
159.877548 0.21091 
159.892685 0.26187 
160.840958 1.081783 
160.891556 0.134887 
160.987961 0.255985 
162.838104 0.711776 
162.891998 0.039896 
163.039062 0.308402 
163.075455 0.047343 
163.839172 0.22234 
163.962524 0.132894 
165.039658 0.357425 
165.836197 0.305812 
166.178986 0.036603 
167.019043 0.054716 
167.031952 0.05579 
168.057953 0.047872 
168.998352 8.579009 
169.997574 0.187842 
170.977554 0.301784 
170.995544 0.628577 
171.046143 0.113623 
171.101639 1.875972 
171.982635 0.338815 
172.957047 0.359716 
172.990555 0.067859 
173.044571 0.802156 
174.385818 0.04382 
174.828049 0.048755 
174.86203 0.039155 
174.989105 0.061403 
175.042145 7.363594 
176.04451 0.082634 
176.89978 0.983995 
176.983383 0.322747 
178.896576 0.421113 
178.987198 0.185595 
179.107529 0.037497 
179.957397 2.977129 
180.032486 0.909446 
180.123062 0.042219 
180.959885 0.10916 
183.004028 0.054339 
183.012375 0.702118 
184.00061 0.342919 
184.504211 0.055083 
186.974854 0.039943 
187.096237 0.261987 
187.133118 1.345906 
188.855576 0.896173 
189.090988 0.154446 
189.853455 2.077871 
190.851517 0.443126 
191.055557 0.163255 
192.99765 0.059671 
193.035446 0.053368 
193.051971 0.232712 
193.084717 0.04796 
197.752533 0.041316 
199.132919 0.059615 
199.169647 0.754545 
200.944489 0.740845 
201.112518 0.137843 
202.077087 0.038298 
203.918915 0.687456 
205.159012 0.056795 
205.89299 1.019723 
207.011612 0.691929 
208.977173 0.054236 
209.079132 0.54012 
209.154129 0.049989 
212.950821 0.186435 
213.84375 1.71464 
213.857422 0.596933 
214.929459 0.044413 
215.16478 0.216589 
216.908768 0.12503 
219.173538 0.039846 
220.264633 0.039526 
220.916504 1.948124 
221.029556 0.077832 
221.084839 6.613482 
222.087921 0.403562 
223.027496 0.284647 
223.058609 0.03722 
223.924988 0.040149 
225.007095 1.300769 
227.070511 0.245035 
227.201218 0.64198 
228.965622 0.097237 
231.068436 0.098645 
231.139648 0.039885 
232.924347 0.158533 
233.000443 0.104204 
234.85878 0.628016 
236.911697 0.920444 
238.89183 0.049239 
241.071625 0.193329 
242.175507 0.043072 
242.996368 0.204301 
243.632614 0.040584 
247.839096 0.13703 
248.079758 3.536064 
249.061615 0.724521 
249.078308 0.164475 
250.947327 0.051618 
253.002106 0.860319 
253.217133 0.145632 
254.863922 0.038033 
255.08757 0.939821 
255.232651 62.166107 
255.58844 0.096392 
256.236053 9.582535 
257.239532 0.586289 
260.873108 2.89967 
261.878052 0.038901 
261.890472 0.054477 
262.8685 0.05237 
263.870209 0.173815 
264.158722 0.060636 
265.146973 0.13019 
267.072235 0.540148 
270.251953 0.066706 
271.013031 0.041338 
271.226685 0.040595 
272.900879 0.051728 
274.880585 0.686189 
275.880371 0.280026 
276.104797 0.04128 
276.878571 0.063233 
278.944702 0.857452 
278.971039 0.041935 
279.944702 0.065275 
280.17337 0.054153 
280.932861 0.050521 
281.24823 1.715039 
281.306915 0.046323 
282.25177 0.972278 
282.995117 1.141778 
283.136963 0.160913 
283.264038 41.397121 
284.267426 7.470864 
284.338165 0.044746 
284.973724 0.364659 
285.27066 0.233401 
285.974396 0.053987 
287.055908 1.039481 
290.719055 0.043301 
290.870667 0.051541 
293.178375 0.04779 
296.911194 0.484242 
297.046906 0.071808 
297.152954 1.992692 
298.046204 0.049089 
298.156097 0.200467 
298.90686 0.044192 
299.026337 4.54373 
299.941254 0.041931 
301.005615 0.360427 
306.94281 0.487599 
307.158051 0.182272 
307.194366 2.563296 
307.868347 0.446678 
307.898987 0.332448 
308.197632 0.146396 
308.950439 3.974456 
309.028687 1.573495 
309.152832 2.03971 
309.173492 0.914473 
310.027557 0.057841 
311.16864 4.872703 
312.172119 2.525532 
313.163971 0.243268 
313.911987 0.057813 
321.258545 0.045726 
321.962982 1.186796 
321.997742 0.042893 
322.96521 0.059274 
323.168213 1.070263 
325.184082 46.233112 
326.187469 5.926532 
326.962158 0.062973 
326.985229 0.16899 
327.180328 0.592057 
337.72052 0.04903 
339.199646 89.944992 
340.203003 19.61125 
341.194824 3.160756 
342.019531 0.043053 
342.199554 1.814967 
342.225433 0.231192 
343.195496 0.048201 
343.219604 0.957859 
344.940491 0.057841 
347.07486 0.629321 
349.878998 0.065643 
349.899841 0.306145 
351.093414 0.592458 
351.876373 0.050929 
351.97403 0.522173 
352.09552 0.104842 
352.973267 0.04898 
353.248932 0.061522 
354.960754 0.0518 
355.070282 0.840434 
355.194824 0.045407 
355.230225 0.043789 
355.26416 0.299073 
356.940948 0.149719 
357.014038 2.736048 
361.147644 1.741822 
362.150116 0.358957 
363.36319 0.324562 
363.830658 0.042994 
365.168396 0.043565 
365.284882 0.084647 
367.230988 0.310866 
367.357788 0.314184 
368.235352 0.433468 
369.10434 0.046997 
369.242767 1.021743 
369.940918 0.047899 
370.868134 2.181712 
371.257904 0.057975 
371.868042 0.051354 
372.866302 0.112641 
372.972137 0.295164 
375.023804 0.367479 
376.952972 0.055502 
379.394348 0.704654 
380.269562 0.058006 
380.395813 0.05647 
381.112396 1.194284 
381.243347 0.049003 
381.281128 0.272881 
381.315887 0.256919 
383.260742 0.41768 
383.294861 0.341631 
383.331268 0.063608 
385.806458 0.048284 
387.957245 0.063074 
387.985229 0.047689 
389.08371 0.173636 
389.937317 0.044008 
393.261108 0.050109 
405.851379 0.070095 
405.909637 0.053816 
407.12326 0.047822 
407.155609 0.378332 
407.354675 0.123597 
407.886749 0.770874 
408.864685 0.589132 
408.888947 0.052377 
410.845825 1.229681 
420.774567 0.04924 
423.328552 0.111753 
423.388245 0.171638 
423.42041 3.816524 
423.917877 0.19372 
424.119507 0.05516 
424.180298 0.73967 
424.259583 0.246513 
424.296295 1.330191 
424.330505 1.692569 
424.390167 0.397323 
424.424225 4.823066 
424.916168 0.133959 
425.078064 0.058315 
425.109772 0.582216 
425.16391 0.16212 
425.197449 1.919792 
425.25882 16.868856 
425.305786 7.336042 
425.341034 1.949566 
425.369965 0.101141 
425.399109 1.702796 
425.42865 0.568282 
426.111847 0.079128 
426.199768 0.262527 
426.261627 4.406812 
426.308899 1.783914 
426.343048 0.463458 
426.403473 0.314358 
427.031311 2.989745 
427.090271 0.067436 
427.212524 0.112947 
427.25177 0.835806 
427.285034 6.444181 
427.321259 3.452297 
427.3573 2.401393 
441.928925 0.13843 
442.92749 0.268962 
450.121582 0.049956 
452.596405 0.046671 
452.750885 0.04443 
END IONS

