BEGIN IONS
PEPMASS=1240.8
CHARGE=1+
COMPOUNDNAME=CYCLOSPORINE
LIBRARYQUALITY=3
SMILES=N/A
INCHIKEY=PMATZTZNYRCHOR-KMSBSJHKSA-N
INCHI=InChI=1S/C62H111N11O12/c1-25-27-28-40(15)52(75)51-56(79)65-43(26-2)58(81)67(18)33-48(74)68(19)44(29-34(3)4)55(78)66-49(38(11)12)61(84)69(20)45(30-35(5)6)54(77)63-41(16)53(76)64-42(17)57(80)70(21)46(31-36(7)8)59(82)71(22)47(32-37(9)10)60(83)72(23)50(39(13)14)62(85)73(51)24/h25,27,34-47,49-52,75H,26,28-33H2,1-24H3,(H,63,77)(H,64,76)(H,65,79)(H,66,78)/b27-25+/t40-,41?,42?,43?,44?,45?,46?,47?,49?,50?,51?,52-/m1/s1
MSLEVEL=2
SOURCE_INSTRUMENT=N/A-ESI-QFT
FILENAME=library_mgf.mgf
SEQ=*..*
IONMODE=positive
ORGANISM=MONA
NAME=CYCLOSPORINE [M+K]+
PI=MoNA
DATACOLLECTOR=MoNA:VF-NPL-QEHF028196
PUBMED=N/A
SUBMITUSER=mwang87
TAGS=
SPECTRUMID=CCMSLIB00004721777
SCANS=28196
86.958 0.309468 
88.051048 0.342952 
88.489723 0.419279 
89.385681 0.488587 
89.395302 0.249418 
90.810585 0.554439 
91.053864 0.574655 
91.730919 0.317869 
91.849365 0.190726 
93.771484 0.495164 
94.69735 0.323965 
95.415474 0.435185 
95.879539 0.371275 
96.251968 0.44638 
96.609497 0.218763 
97.411026 0.408516 
98.838722 0.30172 
100.111969 19.404726 
100.42157 0.259734 
100.575989 0.371884 
101.132347 0.561344 
101.282059 0.476764 
101.821602 0.412353 
103.293633 0.388635 
103.415787 0.434996 
103.933502 0.263628 
106.168999 0.361249 
107.039993 0.25238 
109.17527 0.498471 
109.216896 0.50823 
110.181343 0.40173 
111.593361 0.449599 
114.037735 0.370882 
114.802429 0.405482 
115.186363 0.45573 
118.133759 0.184442 
119.193275 0.370148 
120.083847 0.248506 
120.777023 0.471166 
121.194901 0.342761 
121.225845 0.2405 
122.071136 3.564202 
122.702522 0.401488 
122.713753 0.242894 
123.09166 1.08773 
124.755951 0.563139 
125.964775 0.225018 
126.037933 0.207155 
128.106781 0.427036 
128.353241 0.386084 
129.056564 0.483558 
133.827362 0.236137 
135.718246 0.257972 
135.797867 0.440982 
136.825943 0.245403 
139.563828 0.373105 
142.529785 0.449555 
144.047546 0.254205 
144.301636 0.550761 
144.330673 0.377311 
145.88884 0.200417 
148.049637 0.424623 
149.996109 0.516611 
150.717148 0.3284 
150.852158 0.462605 
152.968246 0.376072 
154.053833 0.404846 
156.769699 0.359494 
157.052689 0.348244 
157.539001 0.441419 
159.508408 0.238923 
163.869858 0.632044 
164.334213 0.476038 
164.839874 0.272433 
166.052322 0.495988 
166.34346 0.187329 
167.2164 0.529422 
169.125183 0.363762 
171.725708 0.357718 
172.14917 0.291513 
175.04393 0.28148 
176.949158 0.181905 
177.674988 0.226588 
178.501053 0.297553 
180.214676 0.529808 
181.938858 0.201699 
186.855713 0.40793 
188.213882 0.485356 
188.287079 0.262853 
192.63324 0.19688 
194.539139 0.619733 
196.79068 0.601131 
197.715836 0.403986 
198.63472 0.362597 
198.706619 0.332372 
204.419312 0.275445 
204.578171 0.561221 
206.893799 0.31031 
208.739227 0.398983 
210.148743 2.271576 
212.09874 0.503465 
213.869385 0.339389 
214.165268 0.284588 
217.263123 0.278483 
218.388443 0.408525 
224.164154 2.394469 
224.716461 0.252553 
238.601105 0.253048 
242.332962 0.272153 
242.950211 0.360566 
249.103027 0.428266 
255.647415 0.422562 
255.770584 0.644474 
260.820251 0.434731 
260.917358 0.263488 
264.282501 0.280198 
270.294525 0.560238 
270.669678 0.409147 
271.544586 0.292925 
272.870239 0.555423 
279.647949 0.483841 
280.103394 0.334598 
281.352051 0.443677 
282.047729 0.558041 
286.031708 0.482311 
292.199188 0.31014 
301.37262 0.435279 
304.166656 1.210578 
304.190125 0.543063 
307.694336 0.368666 
308.173279 0.211475 
309.038147 0.339249 
309.747742 0.307709 
310.174042 0.290044 
318.37149 0.355164 
323.204437 0.322329 
325.146088 0.460342 
328.520691 0.47971 
334.989929 0.464468 
336.522125 0.327954 
346.150604 0.446431 
346.576202 0.359436 
358.187286 0.27915 
358.763397 0.28899 
363.092285 0.459944 
367.198822 0.41656 
377.251709 1.465409 
379.985931 0.557157 
385.596039 0.38915 
386.332947 0.19286 
391.267242 5.122981 
393.225769 56.683918 
394.228485 2.106569 
396.24234 0.253436 
397.789124 0.232052 
410.319153 0.426557 
414.882355 0.443302 
429.218567 0.444961 
435.512726 0.267734 
439.22937 0.295574 
447.642273 0.367891 
450.303802 0.888179 
460.515564 0.29373 
462.307434 0.318069 
464.260529 0.589108 
466.273773 2.188847 
478.278168 0.296855 
490.33429 4.234508 
491.336548 0.24825 
495.468445 0.381171 
502.277344 0.302598 
503.918884 0.394357 
504.351257 0.850222 
505.990356 0.433342 
506.307861 4.927893 
513.016785 0.466225 
518.365662 0.410547 
520.324219 22.254921 
521.326477 1.063612 
528.387451 0.44979 
532.382385 1.31153 
533.386353 0.214616 
534.339172 0.438155 
546.302429 2.393209 
548.320984 0.323597 
549.315491 4.016452 
561.371155 6.066275 
562.376038 0.791039 
563.384949 0.278751 
565.343994 0.331369 
566.348877 0.343275 
574.311646 0.775917 
575.386658 4.344313 
576.392517 0.242545 
577.345825 18.289642 
577.39624 0.252407 
578.351257 1.260139 
586.335388 7.29409 
589.404236 7.091523 
590.358704 0.420413 
590.405029 1.396663 
591.362183 46.921577 
591.409485 0.384213 
592.36438 8.118559 
593.364746 1.024727 
600.389771 0.251871 
601.639587 0.419715 
603.419373 0.875392 
604.421448 0.241297 
605.378784 0.714063 
607.376099 0.24954 
615.373108 0.326675 
619.355713 3.553819 
620.352112 3.189269 
620.406921 0.650387 
623.351379 2.761568 
628.602356 0.446126 
631.356506 1.166261 
635.147705 0.288364 
636.381714 5.251341 
637.366089 1.310558 
644.733032 0.282483 
646.424438 1.081936 
647.427734 1.211125 
659.392578 0.283093 
660.440247 5.024884 
661.443665 1.51845 
662.399475 74.59449 
663.401367 19.229193 
667.011536 0.454242 
673.402771 0.947984 
684.439087 0.553041 
687.40448 0.259114 
688.373169 1.272334 
689.734741 0.20804 
690.390747 0.809846 
692.664307 0.754705 
699.051453 0.188352 
702.484863 0.284307 
703.428345 0.203294 
703.488647 0.280659 
704.444153 8.564501 
705.45343 1.006089 
706.4599 0.320824 
708.403748 31.556015 
708.463501 0.263066 
708.87439 0.668841 
708.941101 1.037066 
709.012878 0.793052 
709.14679 2.377613 
709.405029 1.516671 
718.388245 13.196441 
718.450806 0.254669 
719.409119 1.088789 
719.475769 0.44383 
721.435547 32.121159 
722.437622 6.276661 
723.43927 0.413106 
733.435913 1.827043 
734.382141 8.571684 
735.385193 1.238106 
744.447388 0.438151 
747.450867 33.822147 
748.453125 6.534162 
763.4823 2.44426 
772.462891 0.216339 
773.522766 0.324063 
774.528931 0.313303 
775.475586 1.021693 
784.470703 0.475181 
787.540649 0.341472 
789.496582 30.821299 
790.502625 7.246446 
801.555054 3.823668 
802.474792 0.569868 
802.559265 1.586803 
803.511719 8.343484 
804.512878 0.565707 
815.477722 1.571142 
816.473816 0.685211 
818.487976 2.305864 
819.489746 0.479532 
829.494507 0.408425 
829.587524 0.324441 
831.542297 16.757816 
832.548035 3.650495 
833.55719 0.199208 
843.428223 0.483891 
846.516907 1.22124 
846.5672 0.916664 
847.574463 0.36331 
848.534973 47.322285 
849.536682 19.945324 
850.535461 0.390501 
855.510376 0.555945 
857.310791 0.22432 
858.520264 0.31335 
871.535034 0.513306 
872.566589 0.662102 
873.516968 2.300563 
873.59198 0.437436 
874.551086 48.064442 
875.551025 13.779831 
890.58606 0.303866 
900.526367 0.861629 
900.623169 0.375488 
902.581055 13.961476 
903.580933 2.796231 
916.596558 6.950908 
917.596313 0.956987 
927.933655 0.391532 
929.554749 0.755782 
931.451538 0.434345 
931.567749 0.4559 
941.572266 0.489845 
944.624573 3.314164 
961.621155 0.4271 
970.607422 2.207578 
971.602539 0.725377 
973.60907 0.781031 
974.638611 0.398614 
975.632385 0.948464 
982.606689 0.754545 
985.593079 0.505398 
987.626648 0.294352 
995.691895 0.41247 
999.647461 0.291336 
1001.609558 1.549339 
1003.660339 0.379101 
1014.606873 2.48946 
1015.613708 0.361118 
1027.626465 1.097284 
1028.612793 0.45529 
1029.678833 14.878539 
1030.679932 2.690306 
1031.672119 0.41795 
1039.640503 0.397133 
1042.603516 6.043834 
1043.593384 0.31823 
1057.662964 0.568324 
1067.660278 5.939518 
1068.671021 0.308786 
1084.675293 0.275697 
1096.68689 0.998028 
1098.756958 4.370637 
1099.759155 9.401459 
1100.717163 100.0 
1101.722412 54.588093 
1102.716919 11.577287 
1121.538208 0.530328 
1123.738525 0.792868 
1124.703735 2.47808 
1127.750732 1.72347 
1128.71228 58.992821 
1129.714111 34.834419 
1130.71228 4.648165 
1152.70752 1.764388 
1194.789795 3.769893 
1195.793457 1.315607 
1212.808838 2.662284 
1220.547119 0.503602 
1222.790771 0.424471 
1240.799072 0.634922 
1254.337891 0.388858 
1257.825073 0.32276 
END IONS

