BEGIN IONS
PEPMASS=679.142
CHARGE=1+
COMPOUNDNAME=3-{[(2S,3R,4S,5R,6R)-3-{[(2S,3S,4R,5R,6S)-3,5-dihydroxy-4-methoxy-6-methyloxan-2-yl]oxy}-4,5-dihydroxy-6-methyloxan-2-yl]oxy}-8-hydroxy-15-methyl-11,18-dioxapentacyclo[10.6.2.0�,?.0?,�?.0�?,�?]icosa-1,3,5,7,9(19),12(20),13,15-octaene-10,17-dione
LIBRARYQUALITY=3
SMILES=N/A
INCHIKEY=PONPPNYZKHNPKZ-BAHCCNBTSA-N
INCHI=InChI=1S/C32H32O14/c1-10-8-9-15-18-16(10)29(38)45-26-17-13(23(35)20(19(18)26)30(39)43-15)6-5-7-14(17)44-32-28(24(36)21(33)11(2)42-32)46-31-25(37)27(40-4)22(34)12(3)41-31/h5-9,11-12,21-22,24-25,27-28,31-37H,1-4H3/t11-,12+,21+,22-,24+,25+,27-,28-,31+,32+/m1/s1
MSLEVEL=2
SOURCE_INSTRUMENT=N/A-ESI-QFT
FILENAME=library_mgf.mgf
SEQ=*..*
IONMODE=positive
ORGANISM=MONA
NAME=3-{[(2S,3R,4S,5R,6R)-3-{[(2S,3S,4R,5R,6S)-3,5-dihydroxy-4-methoxy-6-methyloxan-2-yl]oxy}-4,5-dihydroxy-6-methyloxan-2-yl]oxy}-8-hydroxy-15-methyl-11,18-dioxapentacyclo[10.6.2.0�,?.0?,�?.0�?,�?]icosa-1,3,5,7,9(19),12(20),13,15-octaene-10,17-dione [M+K]+
PI=MoNA
DATACOLLECTOR=MoNA:VF-NPL-QEHF001572
PUBMED=N/A
SUBMITUSER=mwang87
TAGS=
SPECTRUMID=CCMSLIB00004692635
SCANS=1572
50.219006 0.100417 
50.633434 0.062692 
50.769669 0.11514 
50.869648 0.026266 
50.981049 0.092226 
51.303955 0.081563 
51.57716 0.062059 
51.869305 0.20814 
51.995064 0.131373 
52.151478 0.147623 
52.555569 0.110965 
53.002934 1.021508 
53.03936 3.305975 
53.078461 0.06865 
53.670483 0.101184 
53.695873 0.137722 
53.746185 0.09674 
53.998062 0.031027 
54.571152 0.18848 
54.620506 0.103619 
55.018642 2.527506 
55.033352 0.026442 
55.0536 0.128197 
55.055016 18.454723 
55.056519 0.039071 
55.062103 0.029707 
55.131893 0.11833 
55.24992 0.025566 
55.517853 0.104195 
55.658516 0.162949 
56.050251 0.164904 
56.804489 0.022853 
56.912907 0.119677 
56.965569 1.562376 
57.032753 0.045171 
57.034252 10.029788 
57.070652 95.174484 
57.428703 0.053725 
57.544003 0.024782 
58.065849 0.481769 
58.07402 0.25006 
58.444183 0.245517 
59.042576 0.073179 
59.049908 9.234051 
59.05954 0.041939 
59.061153 15.627201 
59.06287 0.17158 
59.146633 0.19257 
59.17038 0.123577 
59.346882 0.070667 
59.697208 0.025876 
59.722721 0.218375 
60.045158 0.409349 
60.064274 0.030492 
60.394421 0.124604 
60.516346 0.089007 
60.567436 0.080874 
61.011242 0.095422 
61.029148 2.736105 
61.075733 0.157207 
61.09145 0.216033 
61.839981 0.110398 
62.01923 0.039666 
62.417309 0.114957 
62.655487 0.221853 
62.784016 0.227013 
62.858341 0.056764 
62.902779 0.143387 
62.970413 0.072106 
64.273521 0.150586 
64.362198 0.279271 
65.039268 0.594629 
66.042831 0.103589 
66.047104 0.06199 
66.128532 0.230577 
67.018578 0.027096 
67.054947 20.03319 
67.084885 0.087418 
67.626808 0.08256 
67.845734 0.21772 
68.050133 0.02971 
68.058281 0.272648 
68.385139 0.15184 
68.387779 0.117966 
68.541313 0.118155 
68.642082 0.112645 
69.034164 3.023234 
69.070572 7.600887 
69.140945 0.147682 
69.743149 0.205906 
70.029572 0.034609 
70.065788 2.249806 
70.580307 0.097395 
71.013412 0.454098 
71.049843 5.220239 
71.086235 13.82214 
71.825317 0.15046 
71.888084 0.063951 
72.044952 0.034966 
72.081406 0.736975 
72.201355 0.160041 
72.914627 0.16816 
73.029076 3.402706 
73.047432 1.427229 
73.065437 0.933116 
73.16333 0.161323 
73.590485 0.240154 
74.856415 0.12475 
74.907059 0.237193 
75.044701 8.559645 
75.36187 0.050456 
76.984741 0.193443 
77.03933 0.077311 
77.042213 0.036105 
79.02179 0.098372 
79.054825 17.704094 
80.050049 0.074467 
80.058105 0.166554 
80.912064 0.092592 
81.034019 0.993178 
81.070473 15.854464 
81.913277 0.234236 
82.065361 0.241129 
82.073845 0.13927 
82.086159 0.100658 
82.169685 0.028988 
82.801971 0.115285 
83.049767 10.99246 
83.060753 0.030419 
83.08606 1.001927 
83.561081 0.092891 
84.044922 0.196901 
84.081261 0.375882 
84.093918 0.119672 
84.855728 0.071407 
85.028999 21.320589 
85.065361 8.849727 
85.076401 0.026131 
85.101723 2.006893 
85.411942 0.087509 
86.032181 0.036834 
86.060486 0.035795 
86.096954 2.186339 
86.254295 0.120257 
87.044601 50.783394 
87.182556 0.027517 
87.254784 0.214897 
87.597511 0.066732 
87.919807 0.209819 
88.047806 0.190724 
88.353119 0.08356 
89.038994 0.310041 
89.060257 17.423231 
89.356171 0.219254 
89.396568 0.154555 
89.821503 0.221562 
90.063553 0.032973 
90.376663 0.074456 
90.679085 0.082113 
91.039635 0.066608 
91.054749 38.508434 
91.057762 4.169371 
91.670029 0.155734 
92.058083 0.501803 
92.357162 0.190861 
93.034187 0.03538 
93.037155 0.031759 
93.067062 0.088049 
93.070351 21.134485 
93.751022 0.124659 
93.791405 0.205728 
94.065613 0.428168 
94.073639 0.306766 
94.137619 0.157585 
94.293839 0.141649 
94.935188 0.215934 
95.049583 7.325299 
95.085938 9.144863 
95.599541 0.108792 
95.64093 0.265403 
96.044868 0.152499 
96.052856 0.04772 
96.089287 0.177643 
96.869926 0.196533 
97.028885 0.691512 
97.065231 0.703214 
97.101578 0.174708 
97.329147 0.21002 
97.560013 0.199236 
97.919189 0.16747 
97.999214 0.084658 
98.060417 0.029242 
98.096733 0.037401 
98.212608 0.090452 
98.975777 0.212873 
99.044525 1.99736 
99.055824 0.065632 
99.85498 0.026056 
100.112328 0.08008 
100.198288 0.166504 
100.700569 0.116826 
101.059967 0.210564 
103.03933 0.123208 
103.054596 2.523809 
103.075165 0.132861 
103.533348 0.109104 
104.062576 0.197119 
104.774261 0.09773 
104.906204 0.027428 
105.033913 0.149914 
105.045097 0.580376 
105.070282 16.177046 
105.074142 0.048643 
106.065536 13.078214 
106.073502 0.177968 
106.556374 0.27607 
107.049438 5.335532 
107.052841 0.282129 
107.068893 0.086883 
107.085876 6.457205 
107.366615 0.138886 
108.04483 0.028834 
108.052803 0.032446 
108.081429 0.028287 
108.089043 0.04787 
109.028732 0.148415 
109.065063 1.383773 
109.101517 1.510569 
109.562027 0.256755 
110.054932 0.140041 
110.060066 0.030276 
110.104919 0.036916 
111.044365 4.889234 
111.055473 0.035969 
112.039528 0.035759 
112.207199 0.199109 
113.059845 0.154299 
113.188858 0.073738 
113.825859 0.217318 
114.034897 0.102909 
114.091782 0.029662 
115.054535 0.692152 
115.178932 0.130189 
115.924873 0.252922 
116.049545 0.040399 
116.06234 0.030693 
116.439728 0.12501 
117.070137 6.698225 
117.476509 0.092922 
117.99131 0.161574 
118.065346 1.001268 
119.04937 1.435543 
119.085793 11.197663 
120.044502 0.080919 
120.081032 0.986558 
120.088608 0.031362 
120.439201 0.121522 
121.02845 0.385365 
121.065002 10.692854 
121.101311 2.303559 
121.500893 0.027021 
121.813454 0.12084 
121.952713 0.094139 
122.035927 0.028897 
122.060326 0.035885 
122.068359 0.074791 
123.044182 0.042402 
123.080193 0.483915 
123.116722 0.031883 
123.813629 0.232215 
124.075851 0.031778 
124.814507 0.268998 
125.05957 0.114818 
125.095924 0.080502 
127.038963 0.026653 
127.284554 0.101398 
128.062195 0.154294 
128.463791 0.107551 
129.054764 0.05801 
129.069977 1.408006 
129.344681 0.13829 
129.728683 0.162264 
129.965561 0.088271 
130.065231 2.102477 
130.420944 0.107139 
130.860062 0.3309 
131.018585 0.070797 
131.04924 0.133387 
131.073105 0.289604 
131.085632 4.364517 
131.601074 0.11761 
131.951935 0.159027 
132.037537 0.142384 
132.044312 0.610315 
132.08078 0.642058 
132.088303 0.038478 
132.093353 0.729071 
132.248611 0.120931 
132.918427 0.100118 
133.064789 0.500077 
133.101257 2.424195 
134.059937 0.706123 
134.096481 0.177072 
134.208435 0.032115 
135.044067 0.396826 
135.080475 3.717166 
135.11673 0.424408 
135.218689 0.114918 
135.277115 0.061313 
136.051941 0.16544 
136.075607 0.096321 
137.096008 0.031874 
137.535706 0.029033 
138.049469 0.108314 
138.055206 0.033502 
139.665833 0.143377 
140.632568 0.282179 
140.657761 0.025405 
141.069824 0.09597 
142.058655 0.172762 
142.065781 0.146892 
142.077866 0.034709 
142.443146 0.053053 
143.001038 0.031822 
143.072983 0.188891 
143.08548 0.557402 
143.247147 0.075306 
144.080765 3.073118 
145.01593 0.037398 
145.064819 0.108979 
145.101196 1.306958 
145.436584 0.178997 
145.515182 0.102173 
145.551239 0.029426 
146.060181 0.590121 
146.096375 0.244532 
146.547058 0.089571 
147.044083 0.07116 
147.080338 0.636881 
147.116745 9.715701 
147.587845 0.161191 
148.07547 0.204118 
148.112122 0.057364 
148.699631 0.224035 
149.044815 0.315768 
149.05983 0.071532 
149.096069 0.471351 
149.342865 0.115198 
150.067642 2.192489 
150.272354 0.172404 
151.038971 0.177836 
152.061981 0.837575 
152.262161 0.0945 
152.472153 0.115014 
153.069855 3.894107 
153.654739 0.137209 
153.704941 0.165179 
153.772049 0.057689 
155.060547 0.032385 
155.085403 0.32692 
155.497437 0.237188 
156.080887 0.458479 
156.117996 0.070274 
157.051865 0.025057 
157.065521 0.039614 
157.088409 0.140401 
157.100815 0.06962 
157.47023 0.164159 
157.669754 0.123472 
158.060043 3.271865 
158.096252 0.15306 
158.76091 0.050243 
159.044144 0.034144 
159.068054 0.038078 
159.116898 0.163363 
159.629089 0.16035 
160.075836 0.412319 
160.111084 0.127351 
161.095825 0.140434 
161.132019 0.052624 
162.091156 0.338206 
162.942612 0.228299 
163.111282 0.121912 
163.604813 0.309841 
163.682053 0.109108 
164.04332 0.196326 
164.07106 0.123495 
164.083099 0.087693 
165.070023 4.289909 
165.10257 0.163544 
165.61586 0.179528 
165.738327 0.128753 
166.072815 0.089773 
167.055328 1.445695 
167.072281 0.025477 
167.085297 0.269749 
168.080597 0.234005 
169.064835 0.096637 
169.082169 0.168376 
169.088715 0.045613 
169.102005 0.033766 
169.416641 0.115979 
170.060287 0.050368 
170.096603 0.3149 
171.080399 0.221994 
171.136948 0.025115 
171.503174 0.243474 
172.07579 0.776265 
172.111786 0.079314 
172.207199 0.099251 
172.241089 0.050789 
173.059662 0.029784 
174.054504 0.108164 
174.091354 0.170764 
174.806854 0.170898 
175.015594 0.228352 
175.165588 0.084305 
175.813156 0.051337 
176.07045 0.036062 
177.054352 0.037935 
177.069885 0.060084 
177.12738 0.038986 
177.990402 0.132474 
179.033752 0.160652 
179.085632 0.039136 
181.064667 0.09773 
181.088791 0.035948 
182.096451 0.100787 
182.189758 0.162044 
182.917923 0.072826 
183.080292 1.40063 
184.07547 0.597352 
186.091461 0.071283 
187.05275 0.02504 
188.070374 0.054227 
188.107178 0.047565 
189.991486 0.360954 
191.871857 0.111246 
193.064972 1.709515 
194.096008 0.092467 
194.106003 0.188678 
195.080704 0.531738 
195.104019 0.053302 
196.111938 0.080251 
197.059616 0.101719 
198.091217 0.216823 
200.070831 0.203275 
200.106903 0.163549 
202.167603 0.116056 
203.10585 0.065766 
203.152878 0.051907 
204.102386 0.029831 
205.065063 0.190809 
205.089706 0.071504 
208.112274 0.036726 
208.614838 0.059021 
209.013779 0.195993 
209.059402 0.211494 
210.067062 0.139215 
210.091919 0.034438 
211.065369 0.159355 
211.075287 15.425667 
212.079025 0.609664 
213.753723 0.249967 
216.101822 0.030559 
217.495667 0.129743 
219.416382 0.156684 
220.033783 1.992731 
220.050552 0.030709 
221.059723 8.728908 
222.064667 0.285126 
222.091263 0.027721 
222.898544 1.090925 
223.063309 0.731018 
223.075012 0.471802 
225.042892 0.171533 
225.054489 0.150029 
227.021927 0.087616 
227.069946 0.030998 
228.093185 0.602482 
228.488205 0.191811 
229.101059 0.883998 
233.036194 7.319404 
233.05925 0.042346 
234.128296 0.079188 
235.07576 0.134316 
237.054642 0.924022 
237.077194 0.06827 
238.060913 0.0714 
238.085632 0.041705 
238.912766 0.030227 
239.070206 15.681522 
239.268265 0.215249 
240.07338 0.400677 
240.909027 1.416822 
241.008972 0.235986 
241.296585 0.030208 
242.117126 0.08875 
243.064957 0.033829 
246.197723 0.054645 
246.382034 0.028539 
246.848312 0.14325 
247.330002 0.165884 
248.046692 0.05984 
249.013077 0.070067 
249.05455 23.532379 
249.18187 0.349576 
250.061768 4.913695 
251.046783 22.927177 
251.068878 0.597369 
251.319504 0.323615 
252.041885 0.071499 
252.758911 0.144081 
253.049255 0.043527 
254.82431 0.177696 
255.064743 0.096675 
255.609207 0.148791 
256.925629 0.112209 
257.253967 0.061163 
261.05423 0.060992 
263.069885 0.076765 
264.789612 0.054878 
264.913452 0.105076 
265.0495 3.715888 
265.06311 0.04347 
265.152344 0.222069 
265.803375 0.117407 
266.056061 0.111422 
266.998657 0.031502 
267.065002 10.481346 
268.068237 0.310031 
268.9776 0.128818 
270.423859 0.140147 
275.893402 0.221308 
277.0495 10.210061 
277.487305 0.129473 
278.053772 0.48853 
279.065247 0.234449 
280.036346 0.076075 
281.911957 1.081019 
282.138794 0.220099 
282.763611 0.211373 
283.030334 0.061681 
284.997803 0.077029 
285.045044 0.223091 
286.112457 0.247975 
286.415588 0.100829 
291.062805 0.025209 
293.044403 0.720986 
294.004059 0.061906 
294.052094 1.821018 
294.943329 0.15332 
295.028473 0.15207 
295.060089 11.46923 
296.063293 0.250117 
296.104767 0.032594 
297.520142 0.260525 
300.676575 0.22746 
302.813202 0.323193 
305.044373 22.557026 
306.048187 1.871487 
307.027863 0.108069 
307.048981 0.026425 
311.054474 0.030427 
321.039093 0.30305 
325.037262 0.313396 
327.077881 100.0 
327.26178 0.234179 
328.080963 0.280115 
328.530762 0.03105 
330.019348 0.188847 
330.996857 0.218801 
331.64151 0.1703 
334.046387 0.353513 
335.023285 0.111378 
335.153717 0.054085 
336.838837 0.152108 
343.055756 0.040705 
344.827515 0.032913 
345.72995 0.268475 
351.52359 0.19528 
353.032776 1.065905 
353.84436 0.032388 
360.839142 0.370074 
365.472107 0.092659 
369.837738 0.110727 
371.656708 0.212435 
373.002319 0.722407 
375.038269 0.118482 
381.027649 1.797894 
383.139832 2.730597 
385.690399 0.106811 
391.012787 4.462938 
392.015808 0.090696 
393.044037 0.253615 
394.10257 0.448227 
399.03833 0.141444 
406.339966 0.119177 
409.022583 28.644493 
410.026062 3.058779 
411.027161 0.083607 
413.017792 0.179584 
419.875214 0.215661 
420.167664 0.124389 
423.040344 0.204599 
424.182159 0.316419 
426.830017 0.030704 
427.033508 4.253429 
428.037292 0.359443 
431.523438 0.252059 
431.809418 0.125647 
432.289368 0.227059 
435.039978 0.127268 
436.306854 0.259345 
444.347839 0.055216 
445.119873 0.127212 
447.345734 1.658419 
448.348755 0.146836 
450.922729 0.11436 
460.95047 0.035216 
465.327911 0.230715 
466.773529 0.222989 
470.658203 0.236196 
474.21344 0.110727 
475.015259 0.055271 
482.00177 0.087259 
490.400696 0.066376 
491.779907 0.270102 
495.034393 0.248328 
495.787994 0.186285 
511.077942 0.117003 
516.269653 0.113287 
533.883423 0.027595 
541.005859 0.086333 
546.947937 0.02944 
555.361694 0.072801 
555.902527 0.11589 
562.266174 0.304609 
593.468262 0.122172 
619.370483 0.22804 
623.852173 0.166947 
637.377136 0.117028 
646.689758 0.183737 
648.193237 0.266302 
652.315002 0.161094 
657.580017 0.16447 
668.629395 0.104149 
671.926758 0.132888 
675.662659 0.12463 
690.770874 0.238111 
693.647644 0.030065 
698.014343 0.029301 
END IONS

