BEGIN IONS
PEPMASS=1117.54
CHARGE=1+
COMPOUNDNAME=N-[(3S,6S,9S,11R,15S,18S,20R,21R,24S,25S,26S)-3-[(1R)-2-carbamoyl-1-hydroxyethyl]-6-[(1S,2S)-1,2-dihydroxy-2-(4-hydroxyphenyl)ethyl]-11,20,21,25-tetrahydroxy-15-[(1R)-1-hydroxyethyl]-26-methyl-2,5,8,14,17,23-hexaoxo-1,4,7,13,16,22-hexaazatricyclo[22.3.0.0?,��]heptacosan-18-yl]-10,12-dimethyltetradecanamide
LIBRARYQUALITY=3
SMILES=N/A
INCHIKEY=DFQUSLQYURJBIT-MFKXNLKNSA-N
INCHI=InChI=1S/C51H82N8O17/c1-6-25(2)19-26(3)13-11-9-7-8-10-12-14-37(66)53-32-21-35(64)47(72)57-49(74)41-42(67)27(4)23-59(41)51(76)39(34(63)22-36(52)65)55-48(73)40(44(69)43(68)29-15-17-30(61)18-16-29)56-46(71)33-20-31(62)24-58(33)50(75)38(28(5)60)54-45(32)70/h15-18,25-28,31-35,38-44,47,60-64,67-69,72H,6-14,19-24H2,1-5H3,(H2,52,65)(H,53,66)(H,54,70)(H,55,73)(H,56,71)(H,57,74)/t25?,26?,27-,28+,31+,32-,33-,34+,35+,38-,39-,40-,41-,42-,43-,44-,47+/m0/s1
MSLEVEL=2
SOURCE_INSTRUMENT=N/A-ESI-QFT
FILENAME=library_mgf.mgf
SEQ=*..*
IONMODE=positive
ORGANISM=MONA
NAME=N-[(3S,6S,9S,11R,15S,18S,20R,21R,24S,25S,26S)-3-[(1R)-2-carbamoyl-1-hydroxyethyl]-6-[(1S,2S)-1,2-dihydroxy-2-(4-hydroxyphenyl)ethyl]-11,20,21,25-tetrahydroxy-15-[(1R)-1-hydroxyethyl]-26-methyl-2,5,8,14,17,23-hexaoxo-1,4,7,13,16,22-hexaazatricyclo[22.3.0.0?,��]heptacosan-18-yl]-10,12-dimethyltetradecanamide [M+K]+
PI=MoNA
DATACOLLECTOR=MoNA:VF-NPL-QEHF024869
PUBMED=N/A
SUBMITUSER=mwang87
TAGS=
SPECTRUMID=CCMSLIB00004715932
SCANS=24869
78.115875 0.296829 
78.517456 0.133674 
78.750603 0.247704 
78.833122 0.067987 
79.054291 1.098699 
79.325401 0.470056 
80.04953 1.200913 
80.385078 0.070734 
80.720253 0.068603 
81.033661 0.146109 
81.07003 3.903896 
82.065224 3.440492 
83.085587 2.364775 
83.571007 0.064565 
84.044502 12.661202 
84.080826 0.077268 
84.152496 0.477964 
85.039803 0.065058 
85.101234 0.584854 
86.060165 100.0 
86.079597 0.571483 
86.096542 0.350229 
87.044106 0.099568 
87.063499 3.467752 
87.066116 0.071924 
89.017952 0.113453 
89.059814 0.540483 
89.445259 0.100204 
90.947998 0.103088 
91.05468 2.489343 
91.057495 60.291443 
91.060814 0.604666 
91.575356 0.07197 
91.768387 0.086701 
92.057053 2.150725 
92.060768 1.044869 
93.036797 0.970444 
93.054337 0.602831 
93.070038 1.456602 
94.028793 0.114035 
94.065269 0.518632 
95.049171 0.35314 
95.085625 4.747012 
95.132721 0.074054 
95.462875 0.070502 
96.04451 0.865256 
96.052353 0.079378 
96.080994 0.137666 
96.957016 0.110771 
97.101326 1.055605 
97.801346 0.07079 
98.059952 0.208616 
98.485497 0.104256 
99.055267 0.161944 
99.080574 0.075512 
100.039421 4.526524 
100.075798 48.359184 
101.071213 0.1325 
101.079117 0.747985 
101.830238 0.251612 
102.055077 0.893229 
102.765511 0.265584 
104.10714 2.841442 
105.069878 0.640999 
106.065338 0.411747 
107.049309 3.638234 
107.08564 1.314165 
108.044395 0.208498 
108.080421 0.111152 
109.039841 1.982174 
109.075912 0.3435 
109.10128 4.207971 
109.148705 0.11485 
109.597321 0.237435 
110.023727 0.525879 
110.060081 0.604748 
110.07122 0.134384 
110.621376 0.08176 
111.055275 0.349893 
112.039513 0.545945 
112.075768 0.571444 
112.087082 0.161818 
113.071152 1.108041 
113.080574 0.28442 
113.084648 0.124408 
114.055008 0.667133 
114.636147 0.207053 
116.053268 0.139745 
116.070641 0.353409 
117.065819 0.203192 
118.940475 0.072496 
119.049423 0.475037 
119.085655 0.497863 
121.028717 0.073304 
121.037437 0.082739 
121.064713 0.197086 
121.075981 0.08491 
121.101257 0.494021 
122.060249 0.198874 
123.055428 0.57518 
123.091743 0.293112 
123.116959 0.511701 
124.039268 0.084303 
124.075829 0.672631 
125.071045 2.893114 
125.096252 0.093247 
125.351402 0.227649 
127.050385 0.252213 
127.086807 0.625321 
127.11187 0.119287 
128.070251 0.16133 
128.264893 0.233951 
129.06546 0.074463 
129.534439 0.416648 
130.049988 0.472453 
130.381516 0.120477 
130.493469 0.074773 
131.081573 3.74256 
132.044754 0.109853 
133.06459 0.131337 
133.101318 0.565843 
134.060089 0.669203 
134.354019 0.229035 
135.116943 0.183741 
136.039612 0.480765 
136.075623 0.391761 
137.070969 0.631985 
138.055161 0.920466 
139.050217 0.254846 
139.086792 1.071256 
140.034805 0.084409 
140.070633 0.313001 
140.144135 0.259457 
141.065903 6.47366 
141.071503 0.075781 
141.102493 0.084048 
142.050446 0.133483 
142.085632 0.652005 
143.081604 2.31889 
143.378967 0.518155 
144.630249 0.19405 
145.097305 31.083937 
146.060226 0.620086 
146.100586 1.120993 
146.985367 1.871595 
147.044144 4.708993 
147.117203 0.237018 
148.047485 0.200396 
148.075745 0.494919 
148.76062 0.235411 
149.044968 11.00019 
149.071228 1.200624 
149.096222 0.075417 
150.04425 0.235715 
150.055115 0.301876 
151.0504 0.872401 
151.086746 2.447496 
151.112152 0.100737 
152.070694 0.103377 
153.06575 1.329786 
153.133118 0.122782 
154.049652 0.089553 
154.096924 0.075724 
155.08165 1.844224 
157.028198 0.069507 
157.097275 1.341939 
157.789566 0.073679 
157.990021 0.51082 
158.411682 0.064849 
158.985367 0.845763 
159.969269 0.077695 
160.07576 0.086126 
161.132523 0.077054 
162.054977 0.100903 
163.011337 0.079008 
163.059158 0.071635 
163.086472 0.437662 
164.070786 1.286768 
165.066025 17.822201 
165.102127 0.07252 
166.069748 0.398814 
166.086349 0.195277 
167.055634 36.920139 
167.081131 10.06637 
167.098068 0.210374 
167.974518 0.094454 
168.055084 2.245026 
168.083862 0.628981 
168.687607 0.0957 
169.052628 1.102112 
169.060822 2.147421 
169.075928 0.146538 
169.097092 3.140392 
169.424316 0.079803 
169.989792 0.082772 
170.97197 0.082792 
170.985382 0.38771 
171.076675 2.030754 
173.022293 2.207834 
173.985245 0.09121 
174.055237 3.028853 
175.039047 1.41435 
175.111877 0.064489 
176.070862 0.282886 
177.065735 1.052967 
179.081512 4.382009 
179.368118 0.062408 
180.113281 0.125555 
180.178619 0.103929 
180.369446 0.548969 
181.005997 0.19224 
181.097244 1.391874 
182.985535 0.285151 
183.021851 0.227269 
183.07666 1.982006 
183.112854 0.477266 
183.969299 0.071938 
184.027435 0.15638 
184.073471 0.956382 
184.108017 0.099252 
185.000946 0.873504 
185.041718 0.075964 
185.092239 3.032442 
185.40947 0.075288 
185.985626 0.227899 
185.996353 1.103689 
186.980713 0.145698 
187.016769 0.082623 
187.107956 1.424897 
188.000717 0.208125 
188.03447 0.22543 
188.070908 1.955653 
188.079529 0.082398 
188.937775 0.123489 
188.99614 0.237147 
190.950439 0.411563 
191.081573 2.27817 
192.065674 1.576761 
192.076431 0.114118 
193.060516 1.301189 
193.096939 0.321402 
195.076569 2.89456 
195.88327 0.619154 
196.061249 0.07366 
197.000992 2.58438 
197.021606 0.106187 
197.092224 2.714149 
198.246689 0.073437 
199.001495 0.076158 
199.016693 2.714659 
200.995575 1.499017 
201.017044 0.813977 
202.050049 0.089642 
203.0112 1.82965 
203.081726 0.913212 
204.006653 8.360451 
204.102814 0.09078 
206.091782 0.596463 
207.077179 0.125347 
208.058243 0.09109 
208.107941 0.370436 
209.000717 0.219693 
209.083099 0.119019 
209.092255 4.902938 
210.085709 0.457915 
211.016495 0.693533 
211.071014 0.379922 
211.107666 0.181512 
212.033813 0.116049 
212.995789 0.935062 
213.017563 0.089815 
213.03212 1.813957 
213.087372 0.783617 
213.991257 1.770351 
214.015549 0.304158 
214.575851 0.081623 
215.011414 2.004887 
215.022263 0.306828 
215.103668 0.114312 
216.00679 1.021388 
216.031464 0.23738 
216.043259 0.258333 
216.052338 0.113513 
217.014297 0.216863 
217.026978 4.05654 
217.975677 0.073272 
219.076584 0.720862 
220.710022 0.077807 
221.00061 0.12275 
221.084198 0.25596 
221.093185 0.36182 
222.006241 0.090205 
222.085556 0.108862 
223.016174 0.230014 
223.063324 0.108149 
224.01149 0.220131 
224.02243 0.094807 
224.089371 0.47239 
224.100769 13.8547 
224.141251 0.06765 
224.995789 1.292895 
225.006729 0.159819 
225.031723 0.489526 
225.042999 12.193233 
225.086868 0.297708 
225.104538 0.119034 
225.99118 0.539332 
226.027328 0.205306 
226.042633 0.518317 
226.118408 0.080218 
227.011215 1.205933 
227.022461 2.546751 
227.033539 0.094889 
227.045334 1.376313 
227.081345 0.084299 
227.102692 1.617001 
228.006668 0.362986 
228.02861 0.420349 
228.042618 0.530087 
228.065063 0.100247 
228.557983 0.131712 
229.026733 0.587664 
229.986252 0.560567 
230.023453 0.100444 
230.043854 0.677726 
231.006393 0.33098 
232.01474 0.176632 
233.033722 1.062125 
233.092194 0.094775 
233.390961 0.083468 
234.085526 0.353153 
234.899612 0.444084 
235.016602 0.137805 
236.103058 2.422709 
236.995987 0.666562 
237.018341 3.205632 
237.031738 0.946325 
237.087524 5.364373 
237.991364 0.121924 
238.027634 1.117847 
238.091171 0.080869 
238.118561 0.164132 
239.011505 3.056833 
239.033264 0.675771 
239.094818 5.28328 
240.006989 0.352029 
240.042969 0.825483 
240.065231 0.101803 
240.09642 0.536966 
240.231964 0.192045 
240.990463 0.471766 
241.026886 0.57736 
242.022461 2.585614 
243.005936 0.762667 
243.018021 4.7873 
244.024155 0.182551 
244.038391 0.530021 
244.060455 0.152675 
245.021118 0.126478 
245.033936 0.115056 
245.055862 3.642132 
245.092758 0.186097 
245.494736 0.120861 
246.123795 0.094664 
248.011215 0.126133 
248.996201 0.158758 
249.032166 0.151834 
250.027634 0.597278 
250.080551 0.951992 
250.975449 0.3636 
251.011429 0.884425 
252.043182 0.26154 
252.096634 0.980525 
252.990982 3.022414 
253.026718 4.894235 
254.008133 0.091317 
254.022781 2.93954 
254.113495 1.129838 
254.980392 0.601525 
255.006149 1.549736 
255.028992 20.251631 
255.041687 0.740203 
255.053802 0.650507 
255.076111 0.100066 
255.097931 6.561657 
256.001923 0.624021 
256.037811 6.424145 
256.06134 0.475621 
256.26358 0.456974 
257.022308 0.736148 
257.042664 0.133165 
257.09256 0.118846 
258.017578 0.483533 
258.039398 0.308684 
258.053467 0.348682 
258.077606 0.117158 
259.037231 0.179063 
259.108002 7.929839 
260.033051 5.298632 
260.103302 1.514359 
261.029419 0.602361 
261.123627 0.086871 
262.028076 0.220476 
262.118591 0.240893 
263.011444 0.668878 
264.006287 0.763499 
264.042572 0.320591 
264.269806 0.121499 
264.908997 0.452343 
264.991089 0.614634 
265.026764 1.903344 
265.081604 0.081903 
266.022705 1.872515 
266.043976 0.208507 
266.999115 0.550914 
267.028351 0.111632 
268.000641 0.727692 
268.02356 0.150911 
268.03833 3.050314 
268.059967 0.27397 
268.978577 0.278911 
268.997406 0.18899 
269.020447 0.404679 
270.003998 0.616796 
270.018402 0.633492 
270.039215 0.088653 
270.054108 1.508097 
270.108978 0.086738 
270.27951 2.780773 
271.000488 5.875485 
271.013794 0.319513 
271.035095 0.37515 
271.049194 2.15779 
272.033234 2.221144 
272.053833 0.107903 
272.103638 0.327355 
273.039337 1.615186 
273.087555 4.466004 
273.103638 0.075868 
274.032837 0.134283 
274.048828 6.254427 
274.895782 0.16225 
275.011108 0.152347 
275.032318 0.446954 
276.048401 0.81533 
276.910492 0.58172 
277.02771 0.297468 
277.118347 2.229895 
278.044769 0.282158 
278.059601 0.109654 
278.074829 0.087944 
278.113892 0.629425 
279.005859 0.529499 
279.10675 0.312066 
279.134186 0.969921 
280.00119 0.080909 
280.03833 3.551412 
280.058289 0.082408 
281.02121 0.915492 
281.055878 0.579499 
281.121918 0.202959 
282.017548 4.957566 
282.036011 0.295455 
282.05426 0.39949 
282.109039 0.831858 
282.279816 1.719782 
283.001068 1.271117 
283.031006 2.399288 
283.049133 1.603595 
283.07193 1.310005 
284.017334 0.159251 
284.03302 11.554142 
284.053375 1.212176 
284.070435 0.181078 
285.010498 2.731614 
285.036346 0.184951 
285.064972 1.760578 
286.011719 2.388312 
286.030579 0.204487 
286.048889 0.956263 
286.069153 0.119599 
287.008118 2.756333 
287.102936 2.032333 
288.0289 0.138613 
288.05014 0.775325 
288.106171 0.081909 
290.022644 0.134685 
290.110931 0.081263 
291.005127 0.13365 
291.10675 0.856216 
292.000854 0.20139 
292.039185 0.763854 
292.092285 0.317201 
292.129486 0.084365 
292.263489 0.491086 
293.021057 0.607878 
294.017883 0.670939 
294.279083 0.083838 
295.050537 0.287266 
296.032928 3.417641 
296.935089 0.114804 
297.014465 0.113612 
297.030273 0.203312 
297.087891 1.12775 
298.012604 1.799212 
298.03183 0.447927 
298.04953 1.003014 
298.120117 0.080116 
299.044434 4.277082 
299.062378 6.144194 
300.028412 3.983343 
300.044739 0.091728 
300.063507 0.698025 
300.097992 0.345357 
301.059875 1.961283 
301.081421 0.815298 
301.099792 0.203314 
302.043732 0.736695 
302.62027 0.081854 
303.021332 0.198641 
304.021912 0.219954 
304.040558 0.26808 
304.129669 0.87841 
304.166107 0.158739 
305.113251 2.182456 
306.017639 0.542517 
306.054169 0.182507 
306.920563 0.263524 
307.102051 0.523439 
308.033691 3.387374 
308.055298 15.684535 
308.29599 0.11742 
309.016083 0.724342 
309.039398 0.204505 
309.064331 0.630478 
310.01297 0.863295 
310.031464 0.113438 
310.048889 1.766794 
310.070282 1.274515 
311.044495 5.512638 
311.131653 0.09838 
312.028351 1.151457 
312.047791 0.43641 
313.043152 8.207042 
313.061096 2.555156 
313.079651 0.086752 
314.043854 2.896186 
315.041138 2.241021 
315.060028 0.289446 
316.058746 0.084216 
317.056061 7.249086 
318.0177 0.169958 
318.056824 0.328853 
318.107483 0.302934 
320.033142 2.717888 
321.029358 0.114732 
322.012451 0.350236 
322.031006 0.165562 
322.049286 1.50703 
322.070679 0.748791 
322.101776 0.839861 
322.139374 0.13668 
323.044952 3.416242 
323.065887 1.049532 
324.028534 5.616556 
324.048126 0.931231 
324.067596 0.142657 
324.931244 0.210756 
324.986694 0.08926 
325.010071 0.086656 
325.06012 1.484942 
326.044556 5.446116 
326.065765 78.11203 
326.177765 0.539234 
326.965851 0.359686 
327.046021 0.245265 
327.069977 6.387679 
327.12915 0.093071 
328.023773 0.80199 
328.193878 1.283833 
329.054718 8.84828 
329.074646 0.16289 
330.056152 0.114522 
331.035797 0.222782 
331.070343 7.674198 
331.171112 0.188217 
332.033875 0.204534 
332.072571 0.183326 
333.053467 0.583512 
333.151276 0.279502 
334.013245 0.09954 
334.049408 0.52811 
334.071045 0.146127 
334.101227 0.124241 
335.046143 0.134939 
335.098663 0.094871 
335.131805 0.101303 
335.166901 0.161137 
335.6828 0.139688 
336.027771 3.822688 
336.118469 0.108519 
336.967194 0.639237 
337.059967 2.92911 
337.080383 0.163599 
338.043945 3.571317 
338.06427 1.175371 
339.040436 4.923259 
339.075867 0.742638 
340.022614 1.448151 
340.044128 0.598668 
340.072296 0.805024 
340.093597 10.522847 
341.03775 1.498509 
341.055878 3.022867 
341.075867 0.325393 
341.094055 0.621057 
342.038452 7.321378 
342.2789 0.751159 
342.996826 1.04424 
343.037933 0.737586 
343.071533 0.311695 
344.076569 8.759232 
344.121857 0.094738 
344.953827 0.10347 
344.976532 12.172881 
345.97644 2.636264 
346.973907 0.982191 
347.043762 0.308457 
347.065826 9.932162 
347.102966 0.086797 
348.027924 1.599693 
348.071198 0.355563 
349.059845 1.489396 
349.098022 0.383453 
349.119202 0.291741 
350.043823 1.919887 
350.078033 0.750876 
350.098816 0.08738 
351.039032 0.842727 
351.06076 0.144825 
351.077423 0.087139 
351.300293 0.080243 
352.022095 0.531601 
352.082306 0.838507 
352.193695 0.277689 
353.055145 6.56143 
353.086609 0.156094 
354.037933 9.379668 
354.086273 0.250406 
354.209625 0.425726 
355.020416 0.114038 
355.037323 0.607515 
355.07016 1.547033 
355.102844 0.075132 
356.065979 12.190849 
357.049164 13.708823 
358.051697 0.652551 
358.139587 0.25805 
358.842682 0.10668 
359.065399 0.152192 
360.029175 0.620876 
360.839081 4.468288 
361.060059 0.406902 
361.082123 2.364582 
361.842712 0.260699 
362.044037 0.531796 
362.084717 0.129594 
362.133698 0.272082 
363.04071 0.106043 
363.075867 0.571611 
364.022339 3.353826 
364.065826 0.15071 
364.110596 0.172555 
365.053467 2.574471 
365.075897 41.969616 
366.037231 7.160324 
366.084198 5.876589 
366.127777 0.461879 
367.033844 0.789786 
367.058624 0.13201 
367.072815 0.161968 
367.130463 0.098878 
368.062195 0.794082 
368.088013 3.61655 
369.048523 0.267256 
369.091827 0.090601 
370.083282 0.153678 
370.138458 0.183488 
371.065216 0.569755 
374.080017 1.645481 
375.038544 0.167825 
376.023102 0.801773 
376.158844 0.445489 
376.857361 0.643236 
377.05423 4.683704 
377.076782 0.790512 
378.038391 0.446722 
378.076691 0.127514 
378.128021 0.096773 
378.171265 0.09986 
378.848999 1.151119 
379.033112 0.783732 
379.069 1.085071 
379.092712 3.132915 
380.053436 0.512383 
380.084991 0.482949 
381.049744 3.494473 
381.086487 3.093816 
381.135406 0.248566 
382.033966 3.829696 
382.081085 25.564659 
383.029144 0.632253 
383.085968 8.248346 
384.117249 0.125355 
385.091919 0.467224 
385.282715 0.184795 
386.078156 0.441883 
387.037598 0.108199 
389.053833 0.651896 
390.079742 0.511638 
390.108704 0.641176 
390.260132 0.087236 
391.033478 1.030371 
391.070099 2.540743 
391.121857 0.526495 
392.074768 0.092697 
392.124817 1.939657 
392.15387 1.594435 
393.049347 12.198625 
393.081207 0.58412 
394.032471 0.284148 
394.170288 13.712154 
395.029022 0.096274 
395.086029 2.84505 
395.173157 0.418939 
396.06073 3.512419 
396.093323 0.3787 
397.090637 2.360495 
397.115875 4.292521 
398.134064 0.325351 
398.220215 1.111909 
400.060486 0.239485 
400.089966 0.256148 
400.985168 0.707583 
401.187378 0.191975 
402.963806 3.497779 
403.122192 1.411291 
403.294464 0.090103 
403.964447 0.593482 
404.06131 0.090575 
404.101685 0.256982 
404.959412 0.086723 
405.047607 4.122029 
405.073059 27.5977 
406.048645 0.153334 
406.077423 5.234875 
406.116272 0.466308 
406.846619 0.860373 
407.063843 1.360191 
407.090698 0.686396 
408.06192 0.349786 
408.095123 2.772397 
408.184692 1.092727 
409.044708 0.115805 
409.080902 4.998869 
409.185883 0.096625 
410.061859 0.236113 
410.136505 0.197518 
410.167847 0.427425 
411.060394 2.940598 
411.088013 0.146089 
412.061493 0.401884 
412.090149 1.294308 
413.087128 21.908863 
413.144653 0.188068 
413.248535 0.09359 
414.088776 1.288168 
416.05545 0.576206 
417.049408 0.166875 
418.031891 0.474612 
418.073029 0.588652 
418.995941 5.981248 
419.02829 2.843106 
419.060364 0.1964 
419.08786 0.724592 
419.199493 0.234774 
419.852631 1.224627 
419.9953 1.536022 
420.047729 0.946324 
420.094177 1.019698 
420.121948 0.231274 
420.859406 0.30111 
420.994568 0.407455 
421.044739 6.845432 
421.075562 0.221965 
421.21521 2.908319 
421.861603 0.133591 
422.045624 0.43628 
422.073608 0.116963 
422.112366 4.499573 
422.16452 0.115045 
423.082581 40.640591 
423.230499 0.157041 
424.087616 8.240908 
425.087158 1.776871 
425.210358 0.172441 
426.105103 3.837991 
428.108337 1.04972 
429.084167 0.112681 
430.076904 0.374942 
430.107666 0.153105 
431.157318 0.150825 
432.06012 0.139866 
432.095306 0.148037 
433.044067 1.018322 
433.179382 0.786918 
433.213593 0.08898 
434.067535 0.74705 
434.100708 0.66666 
435.059967 2.34232 
435.230896 1.08268 
436.058746 0.273354 
436.090637 0.281258 
437.208496 0.407407 
438.071808 1.396083 
438.106232 2.551206 
439.065826 0.587748 
439.226013 1.812643 
441.102234 0.126694 
444.084839 0.094662 
444.117676 0.190651 
445.131287 0.098892 
446.072205 0.254579 
447.106476 0.410794 
447.148163 0.427817 
447.348389 0.549606 
448.059052 0.099606 
448.090424 3.328026 
449.174438 0.130386 
450.072357 0.379045 
450.105743 1.278284 
450.781769 0.118032 
451.191345 6.119416 
452.089691 0.102479 
452.193787 0.203668 
453.242615 0.099748 
456.085327 0.151579 
456.232513 0.183585 
459.148712 0.081964 
460.226746 1.110345 
460.262268 0.196687 
460.951782 4.603631 
461.075012 0.109433 
461.109711 5.227371 
461.207245 0.236919 
461.951874 1.031418 
462.094177 8.031047 
462.242798 0.095714 
462.95047 0.097129 
463.097565 0.906614 
463.224976 0.392352 
463.313538 2.038155 
464.085876 3.560136 
464.315796 0.081339 
465.117554 1.321118 
465.206512 0.529662 
466.102264 11.605461 
467.103058 1.489172 
468.137207 0.131314 
474.239899 0.134541 
475.06546 0.101575 
475.124695 1.156161 
476.083954 0.123973 
477.080414 1.389447 
478.237274 1.402907 
478.963135 3.657816 
479.120758 52.486893 
479.221863 0.373463 
479.962982 1.01431 
480.123505 6.507907 
480.252808 0.122613 
480.959534 0.41197 
481.114502 0.818044 
483.126984 1.558081 
484.092285 0.125691 
484.13208 0.086282 
484.225586 0.365431 
484.263885 0.415071 
486.106689 0.597659 
486.24173 0.098734 
486.276337 0.110999 
487.109344 0.087262 
488.145294 3.058824 
488.218506 0.102057 
488.258148 0.292051 
491.309631 0.087471 
492.080688 0.603265 
492.252991 0.094326 
493.076508 0.703285 
495.093536 2.543683 
497.168243 0.29409 
498.109344 0.085181 
499.750061 0.274185 
502.101501 0.442707 
502.235779 4.647361 
503.239471 0.104624 
504.11734 1.080845 
504.249451 0.502068 
506.231598 3.068364 
506.268707 0.190992 
509.107452 1.149461 
509.791931 0.107938 
510.197296 0.101309 
512.255127 0.115296 
513.143066 1.186761 
513.259888 0.088234 
514.125427 5.168706 
514.185974 0.100751 
515.127258 0.137114 
516.107056 0.125228 
516.251709 0.107059 
518.939758 1.126012 
519.938904 0.114817 
520.109314 0.349605 
520.247192 2.678571 
521.107727 1.131613 
521.250916 0.149559 
528.08313 0.152102 
528.251648 0.578164 
530.097656 0.414846 
530.22229 0.100586 
530.266357 0.766854 
531.152344 7.520224 
532.140564 1.232581 
532.246155 0.731214 
534.970581 3.69158 
535.971313 1.46872 
536.956909 0.323561 
543.264282 0.124486 
544.074646 0.113391 
545.10083 0.114809 
545.197266 1.145988 
546.093018 2.324672 
546.215942 0.717243 
546.262268 0.180537 
547.120361 0.377113 
547.216125 0.224911 
548.108215 2.086345 
548.277649 0.149259 
549.273499 0.442698 
552.98175 0.280725 
558.261963 0.537414 
559.124329 0.274591 
559.256042 0.153084 
560.239441 0.35607 
561.276428 0.287326 
563.119446 0.275442 
563.206726 6.132445 
564.211731 0.668781 
565.132263 0.255857 
569.273987 0.248189 
571.344666 0.086623 
573.273193 2.292593 
574.26001 0.594412 
575.278259 0.152595 
576.070251 0.258773 
576.276978 0.456297 
577.222351 0.356725 
577.269714 1.752566 
577.362183 0.112293 
578.906982 0.086921 
585.273682 3.113483 
586.276123 0.714495 
587.286621 0.451214 
589.267273 5.873621 
591.283325 0.480137 
592.273682 0.078511 
594.936707 3.056555 
595.275085 0.205239 
595.937683 1.259179 
596.265076 0.132996 
596.935242 0.430953 
600.287048 0.089457 
602.298523 0.121991 
603.236816 0.307135 
603.284058 2.189074 
603.372375 0.205888 
604.287598 0.127022 
607.230896 1.132339 
612.343445 0.09299 
612.947571 0.480278 
613.945129 0.092783 
614.946838 0.127129 
617.253906 0.224029 
619.364563 0.764586 
621.29071 0.156592 
621.379944 0.134609 
630.295593 0.137202 
637.380859 0.110584 
638.871399 0.588327 
639.872375 0.276777 
640.85675 0.680587 
641.853455 0.289136 
642.85083 0.102939 
647.39447 0.138599 
652.922913 0.197921 
654.904114 2.088414 
655.904968 0.655421 
656.900391 0.547352 
670.287598 0.259277 
671.296814 0.164865 
679.379761 0.27554 
693.250854 0.091331 
708.001404 0.143111 
708.291687 0.097064 
708.753235 0.529383 
712.89032 0.708673 
714.872498 0.896437 
715.254272 0.755054 
715.87262 0.386058 
730.2724 0.120901 
758.302795 0.282233 
767.351379 0.131647 
773.859253 0.092633 
800.453308 0.169727 
802.469971 0.140745 
818.459534 0.095073 
833.467957 0.078521 
845.228638 0.262244 
855.323608 0.509658 
870.452271 0.087221 
901.074951 0.240433 
1082.258057 0.078896 
1093.066162 0.117116 
1115.756958 0.812242 
1116.761841 0.821907 
1117.747681 1.560657 
1118.750366 0.215663 
1157.100952 0.080874 
END IONS

