BEGIN IONS
PEPMASS=871.485
CHARGE=1+
COMPOUNDNAME=ABAMECTIN
LIBRARYQUALITY=3
SMILES=N/A
INCHIKEY=RRZXIRBKKLTSOM-XPNPUAGNSA-N
INCHI=InChI=1S/C48H72O14/c1-11-25(2)43-28(5)17-18-47(62-43)23-34-20-33(61-47)16-15-27(4)42(26(3)13-12-14-32-24-55-45-40(49)29(6)19-35(46(51)58-34)48(32,45)52)59-39-22-37(54-10)44(31(8)57-39)60-38-21-36(53-9)41(50)30(7)56-38/h12-15,17-19,25-26,28,30-31,33-45,49-50,52H,11,16,20-24H2,1-10H3/b13-12+,27-15+,32-14+/t25-,26-,28-,30-,31-,33+,34-,35-,36-,37-,38-,39-,40+,41-,42-,43+,44-,45+,47+,48+/m0/s1
MSLEVEL=2
SOURCE_INSTRUMENT=N/A-ESI-QFT
FILENAME=library_mgf.mgf
SEQ=*..*
IONMODE=negative
ORGANISM=MONA
NAME=ABAMECTIN [M-H]-
PI=MoNA
DATACOLLECTOR=MoNA:VF-NPL-QEHF028040
PUBMED=N/A
SUBMITUSER=mwang87
TAGS=
SPECTRUMID=CCMSLIB00004721621
SCANS=28040
61.181576 0.215134 
61.674271 0.139164 
61.757885 0.173199 
61.986977 2.707559 
62.066849 0.109172 
62.14817 0.218271 
63.459248 0.110733 
64.631012 0.189864 
64.78936 0.190778 
65.038261 1.134778 
66.821007 0.188917 
67.017509 12.320071 
67.109009 0.246037 
67.665001 0.176574 
67.991524 0.341737 
68.996964 0.140016 
69.033157 18.301558 
69.55204 0.22722 
70.83223 0.169055 
71.012466 0.223025 
73.211082 0.253286 
73.365883 0.158595 
75.776978 0.244535 
76.543892 0.116878 
77.618195 0.100717 
78.636101 0.225446 
78.676849 0.191934 
79.054108 0.36141 
79.946709 0.216453 
80.411209 0.106675 
80.815117 0.146382 
81.033241 20.31171 
82.410973 0.168164 
83.048859 21.058268 
83.263878 0.272964 
84.020325 92.1427 
84.48822 0.190862 
85.023705 2.665434 
85.028114 100.0 
86.026978 0.164995 
86.031441 1.898773 
86.892204 0.105365 
89.041504 1.509468 
93.029984 0.101048 
93.033203 4.266438 
96.149902 0.23189 
97.028107 6.768011 
97.064545 30.113323 
97.822128 0.149581 
97.87886 0.214768 
98.067955 0.21814 
98.300957 0.125718 
98.961266 0.191885 
99.007439 0.226041 
99.043762 0.64906 
99.640656 0.135237 
99.725006 0.170577 
100.69133 0.237751 
103.038368 0.195858 
103.142982 0.325269 
103.355331 0.145251 
103.526512 0.212469 
105.033096 0.444735 
105.041618 0.243074 
105.074608 0.180332 
107.048889 7.299423 
107.998833 0.245579 
108.020088 0.135803 
108.146271 0.127487 
108.674538 0.168264 
109.028183 56.114784 
109.064522 1.360874 
110.031799 0.8699 
110.035973 2.883875 
110.11171 0.257519 
111.043808 4.659044 
111.906387 0.242743 
113.357605 0.23799 
113.671577 0.220263 
114.242462 0.248896 
114.253609 0.142118 
114.404587 0.10835 
115.970093 0.183604 
118.246674 0.173806 
120.252403 0.1988 
121.010185 0.191639 
121.028259 3.05379 
122.036072 2.754549 
123.043861 19.629276 
124.047737 0.192652 
125.023125 0.154336 
125.059456 1.963975 
125.242195 0.182613 
127.038757 0.238276 
131.049042 0.124774 
131.776382 0.243346 
132.191452 0.25482 
133.476242 0.102321 
133.603134 0.226697 
135.043839 5.341075 
137.059464 1.577664 
138.22934 0.244578 
138.279785 0.217419 
138.330338 0.106417 
139.03894 0.240035 
139.111847 0.458505 
146.036285 0.131555 
147.044434 0.106209 
148.445435 0.216677 
149.023224 5.543231 
149.096283 0.542297 
149.971146 0.11046 
152.925873 0.231721 
153.054764 0.351675 
153.721329 0.168365 
156.868988 0.222388 
157.064178 0.106605 
159.507706 0.253846 
162.691803 0.111764 
163.03978 0.203065 
163.739304 0.178412 
163.900391 0.104817 
165.724014 0.171892 
167.033966 15.756727 
168.037476 0.118034 
169.1017 0.261547 
171.080719 0.995188 
173.059494 0.560644 
174.978806 0.179027 
175.039108 0.605029 
175.139374 0.137228 
176.976547 0.208681 
180.173035 0.160242 
182.368652 0.172596 
183.080032 0.210357 
185.060181 0.147811 
185.096497 0.316311 
185.281952 0.215931 
187.974243 0.094027 
191.034134 0.122239 
196.192963 0.110216 
197.060135 0.189286 
197.096344 1.534765 
198.068085 0.271833 
199.075592 1.831343 
199.959854 0.194813 
201.055145 0.302134 
201.091644 0.165901 
201.619064 0.145377 
205.245026 0.143072 
211.11235 0.420538 
212.083115 0.493792 
213.091507 3.72366 
215.071487 0.613843 
222.110123 0.150894 
222.29512 0.271725 
222.349579 0.243745 
223.076111 1.086317 
226.343857 0.126154 
229.086212 0.143297 
229.10762 4.775171 
229.404266 0.118107 
229.989166 0.143386 
238.052628 0.112384 
238.15361 0.120927 
241.087463 0.272668 
241.71492 0.184358 
242.127365 0.161193 
242.454514 0.245241 
245.935181 0.186916 
249.405029 0.277227 
252.125412 0.220552 
254.976761 0.300005 
257.020172 0.212683 
260.972321 0.17042 
261.171204 0.14115 
265.108246 0.192841 
265.175751 0.191406 
272.09021 0.198068 
272.363831 0.119641 
278.588959 0.157521 
285.958374 0.13732 
288.043182 0.154063 
288.895935 0.281772 
299.168518 0.217976 
299.489594 0.197461 
300.338898 0.279025 
302.164062 0.198317 
304.201721 0.555483 
304.222687 0.361508 
306.419189 0.261832 
307.281891 0.200365 
332.616821 0.104652 
334.27478 0.216488 
338.456177 0.278414 
339.312195 0.190976 
343.897308 0.188526 
349.406677 0.216808 
361.537476 0.094934 
364.96225 0.149644 
365.148651 0.195619 
369.533997 0.13122 
370.522675 0.28511 
401.677734 0.142951 
415.665894 0.2245 
435.080566 0.17788 
438.128906 0.204623 
440.508362 0.111928 
453.602173 0.099864 
461.157867 0.292 
474.3396 0.222378 
497.957367 0.118294 
509.366089 0.186188 
510.516541 0.153901 
512.565369 0.185588 
523.03186 0.157528 
529.990601 0.142751 
559.139038 0.289419 
581.180786 0.192341 
588.284729 0.26156 
606.431885 0.111693 
618.850708 0.24688 
622.743408 0.114037 
641.349854 0.201369 
650.05365 0.177101 
697.341125 0.218753 
706.317383 0.287419 
708.455627 0.224106 
709.012634 0.141237 
709.142517 0.378751 
716.079285 0.188605 
722.868652 0.28968 
727.690125 0.195258 
741.619385 0.240856 
763.34906 0.181946 
772.085083 0.125415 
791.444397 0.191653 
792.535095 0.10774 
837.026184 0.137569 
886.366577 0.264785 
889.801575 0.227852 
891.017456 0.252109 
END IONS

