BEGIN IONS
PEPMASS=319.143
CHARGE=1+
COMPOUNDNAME=Mycophenolic Acid
LIBRARYQUALITY=3
SMILES=N/A
INCHIKEY=HPNSFSBZBAHARI-RUDMXATFSA-N
INCHI=InChI=1S/C17H20O6/c1-9(5-7-13(18)19)4-6-11-15(20)14-12(8-23-17(14)21)10(2)16(11)22-3/h4,20H,5-8H2,1-3H3,(H,18,19)/b9-4+
MSLEVEL=2
SOURCE_INSTRUMENT=N/A-Linear Ion Trap
FILENAME=library_mgf.mgf
SEQ=*..*
IONMODE=negative
ORGANISM=MONA
NAME=Mycophenolic Acid M-H
PI=MoNA
DATACOLLECTOR=MoNA:VF-NPL-LTQ001911
PUBMED=N/A
SUBMITUSER=mwang87
TAGS=
SPECTRUMID=CCMSLIB00004686058
SCANS=1679
233.059998 2.919376 
245.059998 2.747208 
275.119995 100.0 
END IONS

