BEGIN IONS
PEPMASS=1422.76
CHARGE=1+
COMPOUNDNAME=BACITRACIN
LIBRARYQUALITY=3
SMILES=N/A
INCHIKEY=CLKOFPXJLQSYAH-NVOBBBONSA-N
INCHI=InChI=1S/C66H103N17O16S/c1-9-35(6)52(69)66-81-48(32-100-66)63(97)76-43(26-34(4)5)59(93)74-42(22-23-50(85)86)58(92)83-53(36(7)10-2)64(98)75-40-20-15-16-25-71-55(89)46(29-49(68)84)78-62(96)47(30-51(87)88)79-61(95)45(28-39-31-70-33-72-39)77-60(94)44(27-38-18-13-12-14-19-38)80-65(99)54(37(8)11-3)82-57(91)41(21-17-24-67)73-56(40)90/h12-14,18-19,31,33-37,40-48,52-54H,9-11,15-17,20-30,32,67,69H2,1-8H3,(H2,68,84)(H,70,72)(H,71,89)(H,73,90)(H,74,93)(H,75,98)(H,76,97)(H,77,94)(H,78,96)(H,79,95)(H,80,99)(H,82,91)(H,83,92)(H,85,86)(H,87,88)/t35?,36?,37?,40-,41+,42+,43-,44+,45-,46-,47+,48?,52?,53-,54-/m0/s1
MSLEVEL=2
SOURCE_INSTRUMENT=N/A-ESI-QFT
FILENAME=library_mgf.mgf
SEQ=*..*
IONMODE=positive
ORGANISM=MONA
NAME=BACITRACIN [M+H]+
PI=MoNA
DATACOLLECTOR=MoNA:VF-NPL-QEHF027767
PUBMED=N/A
SUBMITUSER=mwang87
TAGS=
SPECTRUMID=CCMSLIB00004721348
SCANS=27767
98.060036 0.05181 
98.096397 0.091863 
99.091637 0.041679 
101.107353 0.451611 
102.054939 7.32504 
102.091293 0.058557 
103.054245 0.467458 
103.05809 0.280933 
105.070152 0.01113 
107.060303 0.032288 
108.055611 0.065792 
108.080658 0.056732 
109.06366 0.03157 
109.076012 0.062603 
110.071205 100.0 
110.096191 0.067132 
111.055244 0.179047 
111.06826 1.283463 
111.074524 7.636857 
111.091576 2.237437 
111.360268 0.013697 
111.79261 0.009149 
111.985588 0.031798 
112.071793 0.014992 
112.075638 0.914778 
112.086952 0.291684 
112.095192 0.064816 
112.112106 0.032973 
113.070793 0.098034 
113.107269 0.182177 
114.09153 0.028572 
114.102623 0.231105 
115.054482 0.009665 
115.086555 7.806421 
115.499123 0.015244 
116.070808 0.031344 
116.089905 0.450693 
120.055595 0.520363 
120.080772 7.986824 
121.03968 0.915275 
121.076324 0.011376 
121.084106 0.825637 
122.060059 0.025166 
122.071274 1.071231 
123.055222 0.940465 
123.091644 0.050355 
124.007668 0.01237 
124.039291 0.036739 
124.086845 0.178648 
125.070885 0.119526 
125.10743 0.335979 
126.091599 0.12122 
126.799408 0.019935 
127.050232 0.03786 
127.086548 0.16309 
127.412575 0.007788 
127.802536 0.013741 
127.904488 0.021602 
128.118423 0.027476 
128.492722 0.013282 
129.011673 0.205161 
129.065674 0.399466 
129.102097 13.569948 
129.99559 0.119246 
130.04985 0.041311 
130.064896 0.232582 
130.086105 0.040478 
130.100708 0.016784 
130.105484 1.185752 
130.975342 0.016367 
131.027252 0.330535 
131.117599 0.010231 
132.080597 0.028163 
133.063553 0.283237 
134.071136 0.018531 
135.091553 0.775594 
136.075607 1.324308 
136.086838 3.219199 
136.095108 0.00701 
136.112106 0.151653 
137.070999 0.272748 
137.082367 0.048191 
137.090271 0.1974 
137.10733 0.956021 
138.066132 3.984017 
138.091217 0.080591 
138.102432 0.050058 
138.127686 0.474383 
139.069473 0.232791 
139.086517 8.555728 
139.123154 0.029801 
140.08989 0.875382 
140.10704 0.134493 
141.011673 0.401618 
141.102249 0.915232 
142.009659 0.008931 
142.06134 0.013251 
143.027298 0.122845 
143.04509 0.834278 
143.081543 0.059868 
146.096375 0.08676 
146.128693 1.047074 
147.092499 0.023532 
147.113205 0.02723 
148.050507 0.295321 
148.086792 0.200101 
149.070572 0.013577 
149.107391 0.033106 
150.055115 0.018356 
150.102112 0.020288 
150.411697 0.012598 
151.0867 0.033999 
152.08197 0.03504 
152.107086 0.155166 
152.143402 0.090934 
153.102142 1.599969 
153.138138 0.020646 
154.0616 0.015688 
154.068451 0.498098 
154.085983 0.008503 
154.133804 0.012083 
154.15889 0.652994 
154.455154 0.00941 
155.092667 1.946498 
155.117676 0.689204 
156.076706 1.057241 
156.084076 0.021978 
156.113068 2.859114 
157.097122 0.111322 
157.116379 0.043789 
157.852631 0.012258 
159.091736 0.101825 
159.637115 0.021794 
160.087372 0.032019 
161.676559 0.013511 
162.066162 0.179469 
162.102386 3.269784 
163.086426 3.352691 
163.098251 0.163326 
163.10582 0.274515 
163.12291 0.258997 
163.569138 0.018655 
164.045578 0.021322 
164.070419 2.305968 
164.082001 1.751783 
164.089294 0.328684 
164.1185 0.073913 
165.077209 2.030532 
165.084778 0.088366 
165.102234 0.691721 
165.138504 0.515454 
166.061005 8.56481 
166.086746 0.034885 
166.097534 0.113208 
166.122635 0.234419 
167.044998 0.083129 
167.064468 0.893863 
167.081253 0.55973 
167.117889 0.050591 
167.154312 0.193897 
168.101593 0.125436 
168.137604 0.01383 
169.133484 0.140223 
170.117706 0.165263 
171.09462 0.115988 
171.715424 0.031657 
172.071564 0.013373 
172.078979 0.964954 
172.086594 0.024243 
172.111832 0.082169 
173.516846 0.013004 
174.065353 0.014876 
175.086639 0.642134 
175.098206 0.00834 
176.11821 1.376192 
177.121536 0.029118 
177.13855 0.909187 
178.097107 0.014659 
178.13385 1.540396 
178.141983 0.048641 
179.092697 0.127263 
179.11795 0.291529 
179.137573 0.008117 
180.076614 0.394647 
180.113007 0.923395 
180.149414 0.140144 
181.097198 7.405838 
181.108261 7.32074 
181.116837 0.234422 
181.133392 0.79874 
181.169754 0.03077 
182.063202 0.009567 
182.081543 0.093053 
182.100586 0.821945 
182.111832 0.758049 
182.128571 0.071884 
182.137329 0.041627 
182.164932 1.658279 
183.112793 0.421399 
183.149155 3.065284 
183.168839 0.018961 
184.071289 0.030671 
184.097778 0.014125 
184.108047 0.233993 
184.152344 0.369492 
184.180756 0.135213 
185.055557 1.791811 
185.074173 0.032009 
185.091965 0.098837 
186.059174 0.017346 
186.127808 0.207167 
187.503036 0.021208 
187.570419 0.013683 
188.143417 0.615617 
188.609177 0.008269 
189.077072 0.231233 
189.103302 0.082721 
189.11348 0.363067 
189.147202 0.015427 
190.052704 0.024871 
190.061172 0.884796 
190.09761 0.261689 
190.13385 0.240585 
191.081665 0.694316 
191.092651 2.256436 
191.117859 1.078739 
191.12648 0.010111 
192.076477 0.123307 
192.086105 0.022054 
192.095947 0.056684 
192.112885 0.017237 
192.121735 0.024279 
192.149231 0.246992 
193.071899 0.06565 
193.097305 0.125403 
193.13353 3.613539 
193.142441 0.012248 
194.092667 0.039975 
194.136917 0.468732 
194.1642 0.01579 
195.04007 0.27447 
195.091949 0.06381 
195.113403 0.032208 
195.148605 0.040095 
196.043732 0.581968 
196.108017 0.039182 
196.144318 0.158358 
197.074249 1.70363 
197.128494 1.70191 
197.164856 0.161219 
198.058334 1.427631 
198.07785 0.030826 
198.113464 0.031638 
198.123566 4.91837 
198.132507 0.213735 
198.707687 0.012608 
199.08989 13.196892 
199.107315 0.528763 
199.127045 0.383196 
200.093262 0.552691 
200.175934 0.572698 
201.17926 0.009952 
202.082306 0.467469 
202.896408 0.02139 
203.128922 0.164406 
204.113388 0.011546 
205.097672 0.018524 
205.144409 0.021687 
206.103561 0.097298 
206.128555 0.294603 
206.165314 0.094126 
206.951065 0.017 
207.08757 1.699157 
207.113022 0.481765 
207.123917 2.324824 
207.149048 0.374157 
207.160248 0.0709 
208.071747 0.358262 
208.107758 1.705622 
208.127197 0.127844 
208.144226 1.642016 
208.180573 0.011986 
209.074417 0.039747 
209.092087 1.449141 
209.102386 0.13458 
209.111755 0.054039 
209.12854 0.772186 
209.147659 0.199738 
209.164825 0.050531 
210.095596 0.050674 
210.123367 0.090829 
210.160019 7.080851 
211.107422 0.083588 
211.144211 0.898151 
211.163544 1.127721 
212.037888 0.024737 
212.066483 0.328163 
212.106293 0.028331 
212.118027 7.364353 
212.148499 0.007282 
213.050583 0.702922 
213.069122 4.529829 
213.12178 1.444773 
214.04184 0.062832 
214.053116 9.559135 
214.072296 0.785687 
214.122177 0.024552 
214.152786 0.031457 
215.056229 1.64656 
215.085052 0.027692 
215.138901 2.121885 
216.049103 0.85087 
216.068832 0.30203 
216.141617 0.061691 
217.072083 0.884286 
217.097946 0.061018 
217.108582 0.377836 
217.133743 0.209177 
217.170059 0.017491 
218.055878 0.060165 
218.128891 0.017566 
218.137421 0.015556 
220.144196 0.026973 
220.180801 0.134636 
221.128189 0.027162 
221.139832 0.054718 
221.189301 0.013943 
222.102859 0.215445 
222.196472 0.04286 
223.10733 0.020822 
224.118225 1.508701 
224.139145 0.700341 
224.175674 0.963887 
225.069122 5.864973 
225.097977 1.563271 
225.122711 0.80707 
225.134338 0.466525 
225.159241 0.015295 
225.170685 0.385526 
225.848145 0.020529 
226.072571 1.144831 
226.101562 0.07848 
226.118286 1.993027 
226.155136 0.691765 
227.064972 0.545934 
227.084656 5.103549 
227.103317 0.039032 
227.121323 0.097336 
228.088394 0.109387 
228.170532 1.822353 
229.173935 0.152399 
230.077118 1.12725 
231.061646 0.017504 
231.081573 0.016032 
231.124329 0.039983 
231.149246 0.202691 
233.09166 0.028975 
233.164902 1.302046 
234.098419 1.185361 
234.123611 0.251502 
234.159515 0.082948 
235.082504 9.791831 
235.118332 0.018156 
235.143677 0.06094 
235.155167 0.285473 
236.066437 0.710579 
236.086304 1.348098 
236.102402 1.059631 
236.139069 1.295129 
236.151764 0.017484 
236.175491 0.081077 
237.069397 0.021605 
237.086807 0.10258 
237.098312 0.121174 
237.14299 0.157304 
238.120438 0.027799 
238.154953 1.055556 
239.084991 0.729489 
239.12883 0.641714 
239.158493 0.053738 
239.174484 0.018307 
240.088013 0.034089 
240.112991 0.893509 
240.132339 0.046752 
241.117249 0.073899 
241.144821 0.138808 
242.18602 0.181547 
243.133621 0.647156 
243.147598 1.036031 
243.181381 2.345952 
244.149368 0.022418 
244.185242 0.202102 
246.09906 0.08948 
247.155304 0.025975 
248.175674 0.059413 
249.159515 0.162038 
250.097046 0.052497 
250.118576 0.110894 
250.154572 0.028281 
250.268478 0.019019 
252.109039 4.628846 
252.133194 0.272863 
252.155655 0.029147 
252.170761 0.924845 
253.092911 22.566742 
253.129181 0.039189 
253.165558 5.157825 
254.096344 3.610924 
254.113205 0.780342 
254.151047 0.011838 
254.168961 1.013164 
255.097733 0.305484 
255.122925 0.036673 
256.165161 0.069903 
257.139496 7.403013 
258.143341 1.610889 
258.158997 0.011015 
259.145111 0.031191 
260.102173 0.116964 
260.115204 0.098123 
260.140533 0.015158 
260.172516 0.361639 
261.0867 0.013492 
261.158173 0.193864 
262.093079 0.219047 
262.154938 0.246135 
263.077301 2.709717 
263.121307 0.072693 
263.149963 0.064102 
264.080536 0.31239 
265.100677 0.014366 
265.136536 3.820416 
266.139709 0.411477 
266.185822 0.185706 
267.124573 3.764737 
267.151611 1.420611 
268.107788 8.983122 
268.126556 0.994945 
269.111511 2.175801 
269.139252 0.239093 
269.196869 0.172855 
270.119507 1.266513 
270.144501 0.028072 
270.162567 0.049047 
271.10379 0.088225 
271.124603 0.06541 
271.141846 1.71845 
272.146698 0.194801 
273.134125 0.14207 
274.166199 0.187459 
276.145782 0.014931 
276.170929 0.029579 
277.093445 0.054312 
277.129669 0.264828 
277.42276 0.014488 
278.112488 2.431052 
278.149506 0.048231 
279.09726 0.700101 
279.116425 0.675705 
279.181915 0.09907 
280.103333 0.601945 
280.1651 0.561563 
281.088501 2.756062 
281.13147 51.248169 
282.092194 0.215443 
282.135101 17.552212 
282.161346 2.651838 
283.109772 0.021957 
283.127747 5.07114 
283.14682 2.823475 
283.166229 0.132874 
283.200745 0.023111 
284.130646 0.565988 
284.150208 0.895043 
284.17865 2.658438 
285.134369 19.873655 
285.162811 12.854011 
285.179443 0.31934 
286.137848 4.517604 
286.165833 0.580653 
287.14035 0.242859 
288.109253 0.306293 
289.153381 0.042941 
290.147217 0.019993 
290.161682 0.20599 
292.109314 0.013294 
292.200775 0.021654 
293.138885 0.713436 
294.143616 0.135275 
294.162842 0.104867 
294.181335 0.028479 
294.196533 0.238536 
295.118835 1.66521 
295.140625 2.139896 
295.178009 0.112489 
296.123749 2.87356 
296.142212 0.603183 
297.126831 0.930416 
297.144165 0.075751 
297.193634 0.024547 
298.140472 0.073978 
298.158234 0.936914 
302.160767 0.142341 
303.118927 0.014974 
303.217773 0.082767 
304.103699 3.154888 
304.180115 0.444883 
305.088715 0.024235 
305.106964 0.584768 
305.124359 0.040678 
305.160706 0.9095 
306.119965 0.804639 
306.140289 0.022879 
306.163605 0.065946 
308.124176 0.014697 
308.142639 0.105337 
308.159851 0.055478 
309.126282 7.268071 
310.129333 2.815796 
310.158661 0.590275 
311.122223 0.660365 
311.142029 0.289466 
311.161316 0.029408 
312.173676 0.66895 
312.205597 0.036374 
313.129028 0.580543 
313.15387 4.153385 
313.190735 0.590981 
314.132782 0.035505 
314.154175 0.580145 
314.194366 0.042843 
318.156616 0.076238 
318.180389 0.030077 
319.211975 0.013207 
320.24295 0.026268 
321.131165 0.157555 
321.153442 0.018486 
321.228302 0.08096 
322.11438 1.243481 
322.133545 0.030881 
322.187897 0.323064 
323.135254 0.728456 
323.171173 0.993599 
324.118408 0.242384 
324.137939 0.021068 
324.17453 0.02089 
325.121765 0.260461 
325.183319 0.015983 
325.202698 0.05818 
326.151855 0.010583 
327.143005 0.018918 
327.166138 0.017255 
328.132782 0.120492 
328.176788 0.434669 
331.113983 0.263556 
331.213196 0.059745 
332.077667 0.015722 
332.098633 1.381135 
333.101532 0.157675 
335.186401 0.965575 
336.145325 0.034732 
336.190369 0.26947 
337.129059 0.216913 
337.149414 0.020035 
337.202026 0.019394 
338.160675 0.264081 
338.255005 0.293776 
339.140991 1.120736 
339.162598 0.104349 
339.214111 0.095952 
340.144623 0.029619 
340.162262 0.080857 
340.200348 1.671844 
341.145599 0.618357 
341.184265 0.329099 
341.204681 0.256904 
345.201447 0.033338 
346.151489 0.116562 
347.241882 0.016191 
348.239319 0.402333 
349.125031 8.03109 
349.186584 0.030267 
350.108826 4.085344 
350.128998 1.406131 
350.184631 0.235073 
351.111328 0.900968 
351.132294 0.125859 
352.212585 0.194876 
354.154877 0.049684 
354.228302 0.385474 
355.140045 0.125798 
356.126373 1.548334 
356.265137 0.119867 
357.132202 0.02887 
357.225037 0.618877 
358.171967 0.618613 
358.210052 0.169067 
359.110443 0.013491 
360.093628 0.668094 
361.095795 0.020693 
363.17923 0.06331 
363.202393 0.033667 
364.140778 0.194882 
365.123688 1.309409 
366.127625 0.328684 
366.249329 0.237781 
367.13559 3.929043 
367.19754 0.017256 
368.138794 0.575223 
368.192749 0.326865 
369.140564 0.304396 
370.149261 0.088416 
371.182587 0.138108 
371.229828 0.020183 
372.639648 0.015701 
375.238678 0.09939 
377.120117 0.748845 
378.103363 1.274259 
378.190002 0.009638 
379.106201 0.066985 
380.131561 0.011411 
380.207825 1.620709 
380.490662 0.024803 
381.211395 0.809222 
382.150482 2.857726 
382.213165 0.045096 
383.13092 0.020858 
383.154449 0.680681 
386.167633 0.011388 
387.17688 0.435747 
388.160645 0.353693 
389.165161 0.06556 
394.208649 0.018657 
395.130554 0.590824 
395.211121 0.185193 
396.131042 0.012087 
396.913269 0.009071 
398.218536 1.240188 
399.17691 0.085721 
399.22113 0.267756 
400.160858 7.439684 
401.163574 2.163174 
402.167328 0.111059 
405.187683 1.536142 
406.190857 0.369166 
408.167084 0.029642 
409.207092 0.019228 
410.145508 0.919092 
411.14917 0.190976 
412.218811 0.018496 
413.221405 0.140128 
415.171844 1.125433 
415.200714 0.021172 
416.175568 0.149293 
417.187103 0.092611 
418.244507 0.066047 
419.166199 0.036765 
419.202332 0.009259 
420.158875 0.053527 
423.204956 0.06663 
427.173401 0.050494 
428.155701 0.566872 
429.157776 0.038725 
432.198639 0.184721 
433.182129 3.065382 
434.146271 0.070242 
434.185272 0.917346 
435.194031 0.033245 
435.270569 0.048635 
436.255371 0.034848 
437.212891 0.098295 
438.16864 0.573987 
439.171082 0.148918 
440.179504 0.02566 
441.216766 0.212477 
442.200012 0.989668 
443.196136 0.008999 
447.352661 0.019494 
450.209106 0.873539 
451.171661 0.193528 
451.211487 0.105577 
452.295807 0.030269 
453.28125 0.057355 
454.218536 0.025048 
455.224518 0.610016 
456.228394 0.022446 
460.193207 0.205809 
469.182648 0.835312 
470.183868 0.105179 
471.314758 0.010035 
474.23288 0.026265 
477.221375 0.028945 
478.20575 0.126568 
479.166779 0.252226 
484.302032 0.015364 
486.208984 0.064313 
489.193207 0.019557 
492.182312 0.023945 
495.231812 0.04 
496.191803 0.053096 
496.231354 0.024786 
497.1763 0.351985 
498.17984 0.013763 
506.199127 0.044036 
507.158997 0.008043 
510.270233 0.014413 
513.245117 0.642944 
514.203979 0.381937 
514.244995 0.041843 
515.676208 0.026019 
521.226624 0.019109 
523.228638 0.127513 
524.189453 0.022416 
524.280518 0.009583 
549.504761 0.016796 
552.25647 0.055638 
562.240784 0.022904 
572.022705 0.025808 
574.274719 0.062507 
580.25177 0.052287 
582.263489 0.01464 
592.288391 0.032438 
609.311523 0.017354 
620.218811 0.024858 
643.243042 0.014436 
644.441406 0.021392 
653.191589 0.012871 
666.930176 0.013524 
710.092346 0.021575 
710.17688 0.023015 
710.264648 0.019201 
710.409302 0.133109 
740.370911 0.016217 
762.846069 0.021837 
785.756348 0.019431 
802.12146 0.024861 
870.395203 0.018338 
899.50531 0.017495 
958.524048 0.010465 
966.602905 0.015148 
1017.709595 0.021711 
1054.27771 0.015642 
1071.449463 0.023656 
1112.138428 0.014043 
1147.364868 0.016765 
1256.463989 0.009896 
1313.49353 0.014492 
1366.811157 0.01093 
1388.050415 0.022161 
1390.292725 0.024166 
1411.008789 0.013602 
1444.87793 0.021206 
END IONS

