BEGIN IONS
PEPMASS=176.104
CHARGE=1+
COMPOUNDNAME=Massbank:PB000431 Citrulline|2-amino-5-(carbamoylamino)pentanoic acid
LIBRARYQUALITY=3
SMILES=C(CC(C(=O)O)N)CNC(=O)N
INCHIKEY=RHGKLRLOHDJJDR-UHFFFAOYSA-N
INCHI=1S/C6H13N3O3/c7-4(5(10)11)2-1-3-9-6(8)12/h4H,1-3,7H2,(H,10,11)(H3,8,9,12)
MSLEVEL=2
SOURCE_INSTRUMENT=ESI-LC-ESI-QTOF
FILENAME=Massbank_ESI_positive_8_1_2014_peaks.mgf
SEQ=*..*
IONMODE=Positive
ORGANISM=MASSBANK
NAME=Massbank:PB000431 Citrulline|2-amino-5-(carbamoylamino)pentanoic acid [M+H]+
PI=Putative Massbank Match
DATACOLLECTOR=Massbank
PUBMED=N/A
SUBMITUSER=mwang87
TAGS=
SPECTRUMID=CCMSLIB00000221738
SCANS=10393
113.071 43.231 
115.089 35.267 
130.097 64.512 
133.096 64.058 
158.094 67.857 
159.078 5159.509 
176.102 10000.0 
END IONS

