BEGIN IONS
PEPMASS=326.186
CHARGE=1+
COMPOUNDNAME=ERGONOVINE MALEATE
LIBRARYQUALITY=3
SMILES=N/A
INCHIKEY=WVVSZNPYNCNODU-XTQGRXLLSA-N
INCHI=InChI=1S/C19H23N3O2/c1-11(10-23)21-19(24)13-6-15-14-4-3-5-16-18(14)12(8-20-16)7-17(15)22(2)9-13/h3-6,8,11,13,17,20,23H,7,9-10H2,1-2H3,(H,21,24)/t11-,13+,17+/m0/s1
MSLEVEL=2
SOURCE_INSTRUMENT=N/A-ESI-QFT
FILENAME=library_mgf.mgf
SEQ=*..*
IONMODE=positive
ORGANISM=MONA
NAME=ERGONOVINE MALEATE [M+H]+
PI=MoNA
DATACOLLECTOR=MoNA:VF-NPL-QEHF027709
PUBMED=N/A
SUBMITUSER=mwang87
TAGS=
SPECTRUMID=CCMSLIB00004721290
SCANS=27709
50.227303 0.013238 
50.958611 0.01381 
51.688431 0.011778 
51.872852 0.011413 
52.341431 0.011945 
52.752663 0.011459 
53.212132 0.012075 
53.850342 0.015617 
54.212109 0.012912 
55.77026 0.012563 
55.85519 0.012582 
56.049717 0.015501 
56.394386 0.012352 
57.634407 0.010384 
58.065411 3.15684 
58.066963 0.020314 
58.182602 0.011101 
59.049397 0.089771 
59.360462 0.011261 
59.539024 0.011525 
60.445068 0.014542 
60.596466 0.014604 
61.359501 0.011861 
61.849327 0.009635 
62.286514 0.011805 
62.810074 0.014468 
63.752903 0.011678 
64.032051 0.013626 
64.935547 0.01653 
66.83947 0.014226 
67.762474 0.012828 
68.309082 0.012424 
70.06543 0.013298 
70.24852 0.011523 
70.343422 0.014999 
70.589539 0.012554 
70.600136 0.014094 
70.750336 0.013228 
70.752541 0.013577 
72.233429 0.013262 
73.183868 0.011287 
73.828682 0.01286 
74.059921 0.012592 
75.070015 0.014965 
76.075729 2.673546 
79.024506 0.01426 
79.450119 0.013118 
79.884277 0.014108 
82.553871 0.01198 
82.802071 0.012395 
83.53067 0.012842 
83.780846 0.011399 
84.04438 0.10048 
85.149048 0.01038 
85.186783 0.013335 
85.214912 0.012558 
86.803368 0.010398 
87.893867 0.010148 
88.016518 0.01195 
88.409851 0.011525 
90.036072 0.011673 
90.040169 0.015047 
92.805717 0.014721 
93.378532 0.012767 
96.350815 0.012062 
97.227951 0.013877 
98.19516 0.011931 
98.958328 0.013494 
100.668884 0.014848 
102.988861 0.011892 
103.143425 0.012083 
104.93248 0.014083 
107.551849 0.013192 
108.687721 0.012426 
110.770317 0.012607 
112.075752 2.033952 
113.059769 0.028125 
113.103951 0.012811 
126.208794 0.013466 
126.917686 0.011978 
127.008415 0.011949 
127.133186 0.0125 
130.06517 0.400232 
130.086273 2.436429 
131.089539 0.044873 
134.596359 0.013544 
135.853867 0.015368 
135.897659 0.015151 
136.095276 0.012548 
136.780792 0.011717 
139.450577 0.015362 
139.480637 0.013833 
140.942596 0.010771 
142.334579 0.01508 
143.574448 0.010238 
147.065048 0.011763 
148.994537 0.013033 
151.403442 0.014566 
152.062729 0.08783 
152.268967 0.012259 
153.21138 0.013623 
154.033432 0.011736 
154.065399 0.094156 
156.080734 0.037902 
164.869797 0.013856 
165.730255 0.01192 
167.073364 0.137301 
168.080826 1.517018 
169.084167 0.023065 
172.825378 0.014323 
178.065628 0.014705 
180.08078 11.969276 
180.090103 0.217662 
181.083939 1.311829 
181.443558 0.01214 
182.084061 0.28006 
182.096466 1.791082 
183.099747 0.108848 
187.347458 0.012604 
187.697739 0.013158 
187.826981 0.014771 
188.897583 0.011683 
190.065231 0.075912 
191.07309 0.286758 
192.080811 3.962093 
193.075531 0.020504 
193.084213 0.356347 
194.096466 3.596056 
195.099976 0.345841 
196.112152 0.171101 
197.107376 18.191225 
198.110931 2.184466 
202.938461 0.013214 
203.408249 0.012923 
204.234772 0.013087 
206.096252 0.014608 
207.068008 0.845139 
207.09166 0.976309 
208.075836 81.348061 
208.098816 5.572271 
209.079163 10.739244 
209.103149 0.666012 
210.09169 0.14705 
210.610672 0.014087 
214.991074 0.292445 
214.997971 0.309478 
215.77861 0.014452 
220.075897 0.609836 
220.099396 0.132896 
221.107254 1.405514 
221.974014 0.013466 
222.091187 0.047848 
222.114258 0.353794 
223.122925 100.0 
223.268723 0.013241 
224.094391 4.05277 
224.12645 14.079569 
225.102356 5.813198 
225.138702 0.808163 
225.764481 0.012624 
226.086395 0.091694 
226.105881 0.801581 
233.106796 0.052568 
236.093842 0.048204 
237.138535 1.15553 
238.143555 0.01582 
241.674377 0.014255 
243.604431 0.014831 
246.340302 0.014001 
250.13385 0.114685 
250.165054 0.015246 
251.117737 6.861526 
252.121063 0.999378 
254.104675 0.075342 
255.149002 0.481799 
265.133392 7.176824 
266.11972 0.115227 
266.136658 1.168321 
269.128326 4.108329 
270.131836 0.572256 
270.34259 0.013922 
281.128235 0.169163 
283.144073 49.553921 
284.147461 8.194178 
289.203552 0.015763 
293.151886 0.043503 
293.521179 0.013076 
295.144165 2.542444 
296.147095 0.441441 
308.175751 2.001659 
309.179047 0.236637 
311.16275 4.095128 
312.165924 0.746344 
315.903534 0.01388 
321.120239 0.01355 
326.186371 63.507763 
327.189575 12.573467 
328.192657 0.101835 
332.683533 0.016053 
END IONS

