BEGIN IONS
PEPMASS=363.117
CHARGE=1+
COMPOUNDNAME=(4R,6S,8S,9Z,11E)-16-chloro-17,19-dihydroxy-4-methyl-3,7-dioxatricyclo[13.4.0.0?,?]nonadeca-1(15),9,11,16,18-pentaene-2,13-dione
LIBRARYQUALITY=3
SMILES=N/A
INCHIKEY=WYZWZEOGROVVHK-RPJJWQTDSA-N
INCHI=InChI=1S/C18H17ClO6/c1-9-6-15-14(25-15)5-3-2-4-10(20)7-11-16(18(23)24-9)12(21)8-13(22)17(11)19/h2-5,8-9,14-15,21-22H,6-7H2,1H3/b4-2+,5-3-/t9-,14+,15+/m1/s1
MSLEVEL=2
SOURCE_INSTRUMENT=N/A-Linear Ion Trap
FILENAME=library_mgf.mgf
SEQ=*..*
IONMODE=negative
ORGANISM=MONA
NAME=(4R,6S,8S,9Z,11E)-16-chloro-17,19-dihydroxy-4-methyl-3,7-dioxatricyclo[13.4.0.0?,?]nonadeca-1(15),9,11,16,18-pentaene-2,13-dione M-H
PI=MoNA
DATACOLLECTOR=MoNA:VF-NPL-LTQ005423
PUBMED=N/A
SUBMITUSER=mwang87
TAGS=
SPECTRUMID=CCMSLIB00004689029
SCANS=4650
156.910004 9.564133 
171.009995 5.542821 
174.949997 10.043125 
193.050003 3.783418 
208.970001 22.460077 
222.970001 12.799054 
237.020004 23.887424 
246.979996 26.958263 
253.039993 14.662616 
258.959991 16.013479 
273.019989 8.238517 
281.059998 25.711645 
293.01001 3.233957 
299.049988 44.313416 
304.040009 6.416412 
309.070007 39.180389 
327.059998 100.0 
END IONS

