BEGIN IONS
PEPMASS=101.036
CHARGE=1+
COMPOUNDNAME=CYCLOSERINE
LIBRARYQUALITY=3
SMILES=N/A
INCHIKEY=DYDCUQKUCUHJBH-UWTATZPHSA-N
INCHI=InChI=1S/C3H6N2O2/c4-2-1-7-5-3(2)6/h2H,1,4H2,(H,5,6)/t2-/m1/s1
MSLEVEL=2
SOURCE_INSTRUMENT=N/A-ESI-QFT
FILENAME=library_mgf.mgf
SEQ=*..*
IONMODE=negative
ORGANISM=MONA
NAME=CYCLOSERINE [M-H]-
PI=MoNA
DATACOLLECTOR=MoNA:VF-NPL-QEHF027814
PUBMED=N/A
SUBMITUSER=mwang87
TAGS=
SPECTRUMID=CCMSLIB00004721395
SCANS=27814
50.891224 0.010366 
51.159912 0.009316 
51.936024 0.00945 
52.603222 0.010126 
53.023808 0.01668 
54.512142 0.00899 
55.017517 0.009025 
56.274075 0.014888 
57.033188 0.180638 
57.72517 0.009641 
57.756916 0.011437 
57.992027 3.862822 
58.012039 0.006966 
58.028366 0.01101 
58.180195 0.010131 
59.012383 0.00824 
59.98732 0.016325 
60.326996 0.007881 
60.349152 0.011435 
60.815922 0.009219 
60.991714 0.016787 
62.678799 0.008717 
63.433041 0.011666 
65.982704 0.00798 
66.348602 0.013975 
66.40406 0.008631 
67.147514 0.014069 
68.101936 0.008994 
68.912392 0.016302 
68.972527 0.008148 
70.719849 0.009733 
71.589279 0.008039 
72.521027 0.008825 
73.411591 0.013625 
73.480515 0.009302 
73.830711 0.010763 
75.534309 0.017298 
77.506287 0.007607 
78.239754 0.011352 
78.534943 0.01097 
79.195663 0.020155 
79.214348 0.013835 
79.956039 0.060134 
80.791367 0.007475 
81.949112 0.015011 
81.95179 2.612368 
81.960213 0.210865 
82.089455 0.010955 
82.95266 0.127908 
83.271217 0.01839 
83.92952 0.067911 
84.949753 0.074728 
85.80262 0.009737 
86.268257 0.007928 
86.417358 0.018147 
88.438179 0.013972 
88.689713 0.008344 
92.181709 0.009041 
93.917854 0.01072 
97.526794 0.008433 
97.930046 0.222303 
98.334785 0.009402 
98.584633 0.008638 
98.683861 0.015941 
98.937859 0.413045 
98.947945 3.355591 
98.954597 39.969337 
98.962807 8.005974 
99.007416 0.042829 
99.018684 0.798506 
99.043663 0.008172 
99.924461 29.135565 
99.958847 0.070787 
99.962303 0.058883 
100.022087 0.010193 
100.92469 3.383915 
100.932297 48.080181 
100.944748 4.260771 
100.953674 0.370241 
100.958931 1.399564 
101.034286 1.794906 
101.059418 2.078076 
101.922791 0.425353 
101.932419 5.457189 
102.018379 0.837846 
102.03743 0.013758 
102.062935 0.020426 
102.930672 0.48566 
102.936615 0.034492 
103.038628 0.050629 
104.875458 0.009492 
106.261284 0.009327 
107.011078 0.008383 
108.228363 0.016602 
108.831337 0.013285 
108.895546 0.018874 
111.850555 0.007953 
113.666954 0.017056 
113.924927 1.030619 
115.108955 0.011048 
115.577393 0.015434 
115.79081 0.009341 
115.919449 100.0 
116.264267 0.012888 
116.919601 11.672588 
116.926697 1.764981 
117.917801 1.014041 
117.923553 0.477636 
117.927742 0.103762 
118.593346 0.009871 
119.397385 0.01213 
END IONS

