BEGIN IONS
PEPMASS=421.0
CHARGE=1+
COMPOUNDNAME=MoNA:2232440 Blasticidin S
LIBRARYQUALITY=3
SMILES=N/A
INCHIKEY=CXNPLSGKWMLZPZ-UHFFFAOYSA-N
INCHI=InChI=1S/C17H26N8O5/c1-24(16(20)21)6-4-9(18)8-12(26)22-10-2-3-13(30-14(10)15(27)28)25-7-5-11(19)23-17(25)29/h2-3,5,7,9-10,13-14H,4,6,8,18H2,1H3,(H3,20,21)(H,22,26)(H,27,28)(H2,19,23,29)
MSLEVEL=2
SOURCE_INSTRUMENT=LC-ESI-QQ-LC-ESI-QQ
FILENAME=output_mgf.mgf
SEQ=*..*
IONMODE=
ORGANISM=MONA
NAME=MoNA:2232440 Blasticidin S [M-H]-
PI=MoNA
DATACOLLECTOR=MoNA
PUBMED=N/A
SUBMITUSER=mwang87
TAGS=
SPECTRUMID=CCMSLIB00000573884
SCANS=11135
41.9 8.783784 
55.3 2.702703 
57.7 2.027027 
72.8 4.72973 
78.9 12.837838 
82.0 10.810811 
91.8 4.054054 
93.0 8.108108 
94.4 3.378378 
94.9 4.054054 
95.8 27.027027 
97.2 12.162162 
100.2 5.405405 
104.1 6.081081 
104.7 4.72973 
107.3 2.702703 
110.4 100.0 
116.7 3.378378 
117.3 4.054054 
119.2 3.378378 
119.9 14.864865 
124.3 7.432432 
132.8 3.378378 
133.8 1.351351 
136.3 2.702703 
137.9 17.567568 
138.3 4.054054 
139.4 3.378378 
140.0 6.081081 
144.2 16.216216 
144.9 16.216216 
147.2 5.405405 
149.1 18.918919 
164.0 4.72973 
168.4 24.324324 
174.7 4.054054 
176.8 5.405405 
186.0 26.351351 
187.1 3.378378 
196.5 4.054054 
198.5 4.054054 
206.9 5.405405 
210.6 6.081081 
218.9 4.054054 
224.3 38.513514 
231.5 3.378378 
240.7 4.72973 
241.0 3.378378 
273.6 2.027027 
END IONS

