BEGIN IONS
PEPMASS=163.0
CHARGE=1+
COMPOUNDNAME=Massbank:KO002711 2-Deoxystreptamine
LIBRARYQUALITY=3
SMILES=N[C@H](C1)[C@H](O)[C@@H](O)[C@H](O)[C@@H](N)1
INCHIKEY=DTFAJAKTSMLKAT-JDCCYXBGSA-N
INCHI=1S/C6H14N2O3/c7-2-1-3(8)5(10)6(11)4(2)9/h2-6,9-11H,1,7-8H2/t2-,3+,4+,5-,6-
MSLEVEL=2
SOURCE_INSTRUMENT=ESI-LC-ESI-QQ
FILENAME=Massbank_ESI_positive_8_1_2014_peaks.mgf
SEQ=*..*
IONMODE=Positive
ORGANISM=MASSBANK
NAME=Massbank:KO002711 2-Deoxystreptamine [M+H]+
PI=Putative Massbank Match
DATACOLLECTOR=Massbank
PUBMED=N/A
SUBMITUSER=mwang87
TAGS=
SPECTRUMID=CCMSLIB00000217923
SCANS=8513
40.6 19802.0 
54.0 19802.0 
55.3 188119.0 
59.2 435644.0 
60.6 9901.0 
62.8 29703.0 
67.1 89109.0 
70.5 44554.5 
71.2 14851.5 
72.8 826733.5 
77.0 188119.0 
81.1 297030.0 
84.1 19802.0 
85.1 79208.0 
89.1 39604.0 
90.7 99010.0 
91.0 183168.5 
99.0 643565.0 
101.5 34653.5 
103.2 44554.5 
103.8 24752.5 
104.3 49505.0 
107.1 54455.5 
109.4 84158.5 
110.2 64356.5 
113.2 287129.0 
114.0 440594.5 
117.9 128713.0 
127.1 1044555.5 
128.3 633664.0 
131.2 123762.5 
144.8 188119.0 
146.1 184257610.0 
163.2 11678229.5 
164.4 69307.0 
END IONS

