BEGIN IONS
PEPMASS=530.272
CHARGE=1+
COMPOUNDNAME=(2E,6E,12E)-18-(2,6-dioxopiperidin-4-yl)-9,11-dihydroxy-8-methoxy-10,12,14-trimethyl-15-oxooctadeca-2,6,12-trienoic acid
LIBRARYQUALITY=3
SMILES=N/A
INCHIKEY=YQDJUXPUIRGKNV-MNOLRWOYSA-N
INCHI=InChI=1S/C27H41NO8/c1-17(21(29)11-9-10-20-15-23(30)28-24(31)16-20)14-18(2)26(34)19(3)27(35)22(36-4)12-7-5-6-8-13-25(32)33/h7-8,12-14,17,19-20,22,26-27,34-35H,5-6,9-11,15-16H2,1-4H3,(H,32,33)(H,28,30,31)/b12-7+,13-8+,18-14+
MSLEVEL=2
SOURCE_INSTRUMENT=N/A-ESI-QFT
FILENAME=library_mgf.mgf
SEQ=*..*
IONMODE=positive
ORGANISM=MONA
NAME=(2E,6E,12E)-18-(2,6-dioxopiperidin-4-yl)-9,11-dihydroxy-8-methoxy-10,12,14-trimethyl-15-oxooctadeca-2,6,12-trienoic acid [M+Na]+
PI=MoNA
DATACOLLECTOR=MoNA:VF-NPL-QEHF001651
PUBMED=N/A
SUBMITUSER=mwang87
TAGS=
SPECTRUMID=CCMSLIB00004692714
SCANS=1651
50.076721 0.003487 
50.574631 0.007842 
50.585869 0.010981 
50.731262 0.002709 
51.008289 0.00181 
51.068794 0.010168 
51.217232 0.004071 
51.61467 0.017355 
51.630482 0.011526 
51.96273 0.010646 
52.306911 0.004091 
52.340275 0.00666 
52.397362 0.003243 
52.76075 0.002568 
53.731617 0.008191 
53.894184 0.006598 
53.971771 0.007628 
54.729057 0.002679 
54.831024 0.007264 
55.012283 0.02229 
55.084438 0.00727 
55.088657 0.007136 
55.748253 0.001744 
56.408047 0.00319 
56.626244 0.002087 
56.811131 0.004701 
56.965721 0.017636 
57.070652 0.002389 
58.053818 0.002951 
58.338249 0.012333 
58.76012 0.008324 
58.901066 0.002266 
58.902771 0.00263 
58.983479 0.012307 
59.061111 0.054237 
59.508759 0.003884 
59.708145 0.004086 
60.365253 0.003145 
61.153233 0.007569 
61.315903 0.011873 
61.698524 0.003428 
62.502628 0.021907 
62.808121 0.004395 
63.064816 0.004439 
63.399109 0.004014 
63.839954 0.004517 
64.297035 0.007004 
64.363525 0.004226 
64.998665 0.012144 
65.653389 0.017253 
66.389381 0.01603 
66.56868 0.003794 
66.840134 0.011472 
67.133286 0.007268 
67.151299 0.004326 
67.192116 0.003848 
67.582741 0.003441 
67.587753 0.005314 
67.645134 0.003704 
68.942589 0.002728 
69.085976 0.003635 
69.245049 0.014385 
69.563606 0.004209 
69.846046 0.00726 
70.575294 0.003882 
71.220634 0.007635 
71.576294 0.002481 
72.11274 0.016777 
72.357399 0.012127 
73.855766 0.003461 
75.075531 0.002093 
75.191185 0.015277 
75.552727 0.00397 
75.857521 0.00141 
76.072899 0.003968 
76.294632 0.004919 
76.423042 0.001756 
79.054802 0.002195 
79.321938 0.006383 
79.759567 0.007381 
79.795532 0.006943 
79.89212 0.005214 
80.590233 0.007071 
81.034126 0.00212 
81.532951 0.005696 
82.376625 0.004569 
83.618271 0.00331 
83.651131 0.004554 
83.659943 0.014026 
83.713219 0.004415 
84.598152 0.00311 
85.264297 0.017078 
86.299416 0.005419 
86.816856 0.020398 
87.106674 0.008259 
87.572945 0.004297 
89.060226 0.038851 
89.480202 0.003719 
89.916679 0.008221 
90.149696 0.005134 
92.972565 0.015511 
93.070374 0.018147 
93.18232 0.003856 
93.29744 0.004356 
93.594498 0.004849 
94.039368 0.118987 
94.135094 0.00893 
94.508018 0.002942 
94.514801 0.021054 
94.51944 0.013412 
95.471893 0.004181 
96.247299 0.001621 
96.251953 0.012232 
96.722664 0.01091 
98.553772 0.008031 
98.622528 0.004835 
99.826607 0.007247 
100.064796 0.002203 
100.452957 0.006233 
100.697945 0.022441 
101.002747 0.004935 
101.36895 0.018436 
104.870033 0.007717 
104.964722 0.003349 
106.349312 0.009142 
108.230339 0.004699 
108.233055 0.00615 
108.647346 0.003658 
109.067505 0.003495 
109.10144 0.043289 
109.303238 0.006194 
109.356003 0.001512 
110.770744 0.002891 
110.793404 0.012433 
113.539566 0.00512 
114.598572 0.018281 
115.544273 0.003357 
116.549675 0.00508 
117.076469 0.005151 
117.42205 0.003432 
117.50753 0.00549 
117.846191 0.007781 
119.131485 0.01755 
119.978424 0.020189 
120.78508 0.006375 
121.062523 0.077366 
121.251793 0.007971 
122.070389 0.223947 
123.754547 0.003513 
125.067169 0.005554 
125.135414 0.004162 
126.251671 0.001756 
127.986832 0.006599 
128.291443 0.004814 
129.348343 0.011649 
129.357971 0.012327 
129.808701 0.01939 
131.511185 0.016335 
132.429321 0.022088 
133.085815 0.002353 
133.419373 0.00379 
134.021179 0.100799 
134.137756 0.020186 
136.073669 0.050214 
136.138733 0.005316 
137.350723 0.01721 
138.257584 0.002634 
138.51709 0.004108 
139.401901 0.004874 
140.070374 0.005678 
140.270111 0.003872 
143.427811 0.002067 
145.393494 0.01089 
145.641479 0.003593 
146.052826 0.010453 
148.389114 0.011279 
153.002426 0.003488 
155.535095 0.014235 
155.546448 0.005011 
157.018219 0.017656 
158.493866 0.001603 
160.242447 0.020005 
160.831757 0.004659 
161.76506 0.019442 
162.052414 0.334261 
162.064667 0.01547 
162.09877 0.00423 
162.147903 0.008425 
163.484299 0.004814 
167.391556 0.010322 
167.449585 0.003467 
167.690704 0.019248 
170.792801 0.005016 
172.369629 0.018064 
173.549179 0.00542 
173.759857 0.008423 
173.913223 0.002017 
173.960648 0.007244 
174.464066 0.004627 
174.613922 0.00361 
175.369629 0.008632 
176.068558 0.004256 
177.076126 0.681711 
177.696625 0.004822 
178.760406 0.001696 
181.070847 0.037886 
182.081161 0.003132 
183.085403 0.00324 
188.30217 0.005671 
190.861023 0.002332 
191.06781 0.141778 
191.953033 0.004999 
192.099243 0.002297 
193.083878 0.003285 
194.307892 0.004943 
195.0867 0.545001 
196.088959 0.017768 
196.323547 0.007643 
196.951614 0.007159 
197.132141 0.002157 
199.615067 0.00499 
200.091034 0.001865 
204.366211 0.003272 
207.050186 0.145178 
207.062408 0.094532 
207.403854 0.008955 
211.227448 0.001585 
213.076096 0.448623 
213.081207 0.430206 
213.087875 0.504158 
213.097076 0.417828 
213.109375 0.008817 
217.083481 0.018804 
217.107849 0.009044 
218.047806 0.004477 
219.099136 1.512621 
220.10347 0.018599 
220.337189 0.005494 
220.664215 0.001602 
221.078384 9.276952 
222.081924 0.691032 
222.872025 0.014237 
223.862701 0.01404 
224.477615 0.008179 
224.690964 0.014226 
225.060684 0.151241 
225.754013 0.013931 
226.51001 0.018458 
226.837738 0.017074 
227.534698 0.00163 
227.957062 0.006013 
228.256287 0.005394 
228.281143 0.006439 
230.888107 0.003346 
231.106979 0.003471 
233.10231 1.988331 
234.107376 0.068281 
235.130203 0.114235 
237.360336 0.005692 
239.062927 0.011422 
239.07634 2.603824 
240.078476 0.375599 
240.509735 0.004582 
240.525314 0.012058 
241.07402 0.122955 
242.402832 0.006848 
245.286774 0.0015 
246.013397 0.008476 
246.10968 0.008508 
246.209763 0.003072 
247.132828 0.211378 
248.136093 0.34001 
248.160538 0.007457 
248.564606 0.003755 
249.138382 0.118239 
250.141617 0.041964 
251.029694 0.002894 
252.107895 0.167625 
252.383057 0.019522 
253.092209 0.009535 
253.110291 0.006351 
255.194992 0.015086 
257.086914 0.383585 
258.089386 0.016952 
259.32608 0.007028 
260.173218 0.001769 
262.143097 0.002037 
262.923096 0.008115 
263.161346 0.11941 
263.21701 0.018822 
265.421661 0.007 
265.464355 0.003204 
266.136292 0.305835 
266.614563 0.0015 
269.392303 0.007108 
270.081879 0.007021 
270.118622 0.060192 
271.167908 0.005814 
272.993469 0.016537 
275.183105 0.002934 
276.187653 0.002507 
276.544769 0.002123 
280.62677 0.007286 
285.126892 0.007975 
285.57962 0.006752 
286.140442 0.045167 
287.125 0.027224 
287.821136 0.002966 
289.234833 0.003414 
292.25238 0.00178 
298.790833 0.006132 
299.161652 0.236619 
299.716766 0.004042 
300.123352 0.011493 
302.136139 14.497784 
303.139801 2.247326 
304.087494 0.021127 
304.147217 0.012648 
305.29245 0.00762 
312.157135 0.042084 
313.17807 0.115741 
314.172455 10.416847 
315.1763 1.841452 
316.175049 0.011995 
317.158234 0.003902 
319.151581 6.610921 
320.134827 0.055988 
320.154968 1.091024 
320.488831 0.004862 
321.136505 0.005068 
325.34433 0.006034 
326.172363 0.070227 
330.167419 0.300011 
331.146942 0.001922 
331.187927 4.420152 
332.134949 0.005223 
332.172241 0.771467 
332.183838 1.190932 
333.172272 0.185151 
333.186951 0.124157 
334.167542 0.022847 
336.520599 0.009395 
342.167511 0.363563 
343.172363 0.014478 
344.182587 0.101348 
345.971313 0.011097 
346.148346 0.01044 
350.181061 1.416919 
350.332336 0.005663 
350.523376 0.00629 
351.18335 0.322538 
352.179962 0.060743 
358.045685 0.015272 
359.403717 0.008219 
360.17804 3.355835 
361.181824 0.604031 
364.287933 0.004067 
376.160065 0.004126 
386.388123 0.001514 
393.984375 0.003283 
394.792511 0.007167 
396.214508 0.037026 
399.188507 0.03195 
400.195587 0.236247 
401.19931 0.031441 
404.270905 0.007091 
409.930237 0.003457 
409.974121 0.020017 
412.196777 0.216541 
413.199097 0.05127 
414.176575 0.006528 
414.224854 2.779164 
415.228363 0.636244 
417.199829 0.005138 
418.205658 0.029518 
422.644043 0.001715 
423.894043 0.005632 
426.212433 0.064793 
428.240509 0.043138 
430.346008 0.013874 
432.130096 0.012039 
432.18631 0.440734 
433.190033 0.102269 
433.807404 0.008255 
434.185425 0.005475 
436.245728 0.004678 
438.261322 0.393829 
439.264191 0.002632 
440.51297 0.003429 
453.234863 0.005362 
454.25592 0.454782 
455.261047 0.033073 
459.818451 0.003631 
460.53476 0.004714 
461.267731 0.00583 
462.218842 0.062478 
463.214966 0.009136 
463.627289 0.001588 
464.240234 0.123056 
468.271698 0.183655 
474.216003 0.009233 
480.235229 3.111883 
481.238739 0.842724 
481.891174 0.006555 
482.249542 0.401377 
483.256256 0.016391 
486.282593 0.013711 
494.24588 0.249121 
495.250885 0.029714 
495.996185 0.008728 
498.24585 9.067046 
498.842773 0.012331 
499.249298 2.560558 
500.148315 0.008018 
500.261414 2.577468 
501.264557 0.657304 
510.666046 0.023209 
512.260986 19.883505 
513.26532 5.665233 
514.265381 0.585898 
518.271851 0.019885 
529.408264 0.002172 
530.271851 100.0 
531.27533 30.0707 
531.375183 0.049297 
531.953857 0.018672 
532.27887 3.840248 
546.336182 0.01418 
END IONS

