BEGIN IONS
PEPMASS=449.375
CHARGE=1+
COMPOUNDNAME=3-Epilupeol
LIBRARYQUALITY=3
SMILES=N/A
INCHIKEY=MQYXUWHLBZFQQO-ISZJTHHZSA-N
INCHI=InChI=1S/C30H50O/c1-19(2)20-11-14-27(5)17-18-29(7)21(25(20)27)9-10-23-28(6)15-13-24(31)26(3,4)22(28)12-16-30(23,29)8/h20-25,31H,1,9-18H2,2-8H3/t20-,21+,22-,23+,24+,25+,27+,28-,29+,30+/m0/s1
MSLEVEL=2
SOURCE_INSTRUMENT=N/A-ESI-QFT
FILENAME=library_mgf.mgf
SEQ=*..*
IONMODE=positive
ORGANISM=MONA
NAME=3-Epilupeol [M+Na]+
PI=MoNA
DATACOLLECTOR=MoNA:VF-NPL-QEHF005650
PUBMED=N/A
SUBMITUSER=mwang87
TAGS=
SPECTRUMID=CCMSLIB00004696713
SCANS=5650
50.72578 0.007362 
50.924042 0.005992 
51.527939 0.007805 
51.541214 0.008673 
51.55479 0.006332 
51.57909 0.006449 
52.104912 0.00725 
52.141254 0.007236 
52.191845 0.006462 
52.327972 0.006739 
52.963696 0.00685 
53.141865 0.007589 
53.708466 0.007042 
54.474354 0.007309 
54.489491 0.006203 
55.054962 0.388367 
55.230679 0.007844 
55.363708 0.006593 
55.441612 0.00635 
56.058262 0.007255 
56.06263 0.007547 
56.17857 0.008675 
56.240479 0.007484 
57.034203 0.267314 
57.070667 1.179599 
57.693871 0.006289 
58.065819 0.078934 
58.1805 0.006836 
58.182297 0.006913 
58.571762 0.009948 
58.749756 0.006842 
59.049877 0.333952 
59.061134 0.290216 
59.153133 0.00762 
59.290134 0.008206 
60.045067 0.248726 
60.064648 0.007683 
60.106205 0.0071 
60.25108 0.006166 
60.613529 0.006858 
60.703999 0.008473 
61.011402 0.743512 
61.20105 0.007488 
61.392742 0.007677 
62.019169 0.161902 
62.060795 0.812702 
62.139423 0.006496 
62.623528 0.006853 
62.982491 0.019787 
63.020096 0.007332 
63.17606 0.006942 
63.281631 0.008533 
63.442265 0.008356 
63.950768 0.007243 
63.980663 0.007385 
64.084602 0.007278 
64.182793 0.006809 
65.235306 0.00664 
65.726387 0.0068 
66.486511 0.007682 
67.054932 0.523817 
67.147797 0.008115 
67.303001 0.007864 
67.764366 0.006375 
68.121872 0.007113 
68.950424 0.006647 
69.034103 0.288235 
69.07058 0.715737 
69.361115 0.006789 
69.383499 0.00623 
69.60994 0.006638 
69.673332 0.007424 
70.065765 0.11731 
70.073837 0.007892 
70.136086 0.00784 
70.538101 0.007589 
71.049774 0.23244 
71.08622 0.694035 
71.167175 0.007086 
72.044991 0.041566 
72.081398 0.164849 
72.212143 0.009196 
72.776115 0.006968 
73.029022 0.343051 
73.047539 0.032815 
73.065384 0.195132 
73.571266 0.008297 
74.060623 0.03704 
74.097069 1.020067 
74.64299 0.006144 
74.797745 0.007043 
75.007477 0.008083 
75.044601 0.046852 
75.055984 0.007991 
75.174622 0.008274 
76.076294 0.250551 
77.385605 0.007102 
77.499954 0.009351 
77.572639 0.030422 
77.709373 0.008558 
77.896416 0.008114 
78.403526 0.00717 
78.668083 0.006878 
79.021866 1.23996 
79.054771 0.227188 
79.966927 0.0071 
80.244247 0.007278 
80.594254 0.006208 
80.948425 0.0959 
81.017265 0.008431 
81.033958 0.010132 
81.070488 1.37112 
81.292168 0.007128 
82.109703 0.006963 
82.164787 0.007725 
82.945732 0.011761 
82.960495 0.008639 
83.049637 0.347951 
83.086136 0.632497 
83.246727 0.008354 
84.045013 0.008186 
84.081276 0.101188 
84.174561 0.007108 
85.028847 0.226271 
85.0653 0.414319 
85.101715 0.352447 
85.104202 0.01095 
86.096909 0.30336 
87.044617 6.490582 
87.324837 0.007711 
88.022095 0.026525 
88.039642 0.009428 
88.047882 0.2516 
88.076241 0.079598 
88.117897 0.008769 
88.275337 0.00773 
88.740288 0.007786 
89.048843 0.009053 
89.060242 3.296375 
89.063156 0.010293 
89.07093 0.018074 
89.877388 0.010221 
90.063499 0.078095 
90.091728 0.015706 
90.771606 0.007632 
91.054688 0.302344 
91.057808 0.645816 
92.05761 0.040575 
93.037354 0.688083 
93.054695 0.035317 
93.070374 0.620017 
93.219437 0.009414 
93.882439 0.007109 
95.049446 0.26657 
95.086037 1.932406 
95.196838 0.008043 
96.089096 0.021156 
96.226036 0.006855 
96.298508 0.008589 
96.922234 0.096727 
97.028679 0.091524 
97.065125 0.294581 
97.101585 0.464983 
98.004822 0.007136 
98.096848 0.146597 
99.044426 0.329832 
99.08078 0.228432 
99.563744 0.006966 
100.053452 0.007822 
100.076035 0.485091 
100.112473 0.05875 
101.003578 0.41644 
101.006966 0.008915 
101.023972 0.007167 
101.060028 0.162553 
101.805298 0.006716 
102.055168 0.018674 
102.091789 0.558712 
102.445282 0.007785 
103.039223 0.182206 
103.075546 0.042281 
103.116623 0.007893 
103.868416 0.006964 
104.107254 0.035277 
105.033867 0.612814 
105.070274 0.834585 
105.073296 0.008006 
105.827583 0.008404 
106.050224 0.51853 
106.086479 0.250219 
107.049309 0.022037 
107.070534 0.060219 
107.085892 1.156649 
108.089043 0.019051 
109.064987 0.1749 
109.101456 1.657858 
109.247002 0.010579 
110.059563 0.009511 
110.104691 0.049095 
110.572807 0.007779 
111.044189 0.05153 
111.080582 0.29716 
111.116982 0.154029 
112.896057 0.047487 
113.060005 0.763186 
113.096237 0.041059 
114.016968 0.009539 
114.063339 0.009962 
114.127876 0.012417 
114.893623 0.012546 
115.03907 0.122367 
115.075645 0.010316 
115.595337 0.008143 
115.71302 0.009741 
115.964516 0.007519 
116.053032 0.516335 
116.070679 0.01036 
116.107231 0.135706 
116.977127 0.027501 
116.986176 0.017321 
117.070251 0.019211 
117.091576 0.018171 
117.618889 0.007906 
118.08638 0.009398 
119.049294 0.126034 
119.085724 0.952396 
120.06543 0.007984 
120.080986 0.623781 
120.088982 0.010366 
121.064934 0.362704 
121.101387 1.45177 
122.104515 0.029996 
123.080536 0.326298 
123.116997 1.070336 
124.024719 0.007766 
124.120003 0.013781 
125.059715 0.097114 
125.096176 0.417159 
125.132599 0.007927 
125.61879 0.00659 
125.623878 0.009043 
125.792168 0.007067 
126.052612 0.809853 
127.039101 0.0332 
127.075264 0.038314 
127.111626 0.021052 
127.774101 0.007262 
129.054703 0.050747 
129.092316 0.012256 
129.102219 0.010516 
129.316391 0.007536 
130.049698 0.009948 
130.086472 0.053263 
130.159058 0.048636 
131.070328 0.652692 
131.08551 0.150969 
131.235138 0.009022 
131.790253 0.008149 
132.06604 0.007766 
132.073593 0.020695 
133.049194 0.008656 
133.064758 0.071129 
133.085922 1.225577 
133.101273 1.004076 
133.71582 0.008799 
134.089203 0.030964 
134.104721 0.01785 
134.996582 0.070946 
135.043961 0.053901 
135.08049 0.771171 
135.116852 1.253566 
136.075729 0.009856 
136.120056 0.055784 
136.344498 0.007376 
136.488113 0.007343 
136.812363 0.008366 
137.059601 0.227098 
137.0961 0.313685 
137.132477 0.511321 
137.344681 0.008231 
139.075272 0.242514 
139.111588 0.124544 
139.727707 0.007977 
140.068222 0.008062 
140.106995 0.078396 
140.143173 0.100479 
140.522858 0.00875 
140.959213 1.416514 
141.090881 0.011967 
141.12735 0.03716 
141.816696 0.007525 
142.0858 0.009374 
142.158722 0.01001 
142.268112 0.009701 
142.955002 0.010363 
143.085449 0.077056 
144.089264 0.00784 
145.016281 0.008847 
145.049591 0.043639 
145.101181 0.475168 
145.117111 0.007895 
146.104141 0.007127 
146.152267 0.007441 
147.043747 0.010271 
147.080383 0.116684 
147.116791 0.815617 
148.024887 0.175237 
148.971878 0.027729 
149.023254 0.213068 
149.059647 0.17248 
149.096146 0.742998 
149.132462 0.839191 
150.026825 0.022703 
150.136002 0.021788 
150.951096 0.051682 
151.075394 0.156572 
151.111679 0.17885 
151.148193 0.020003 
151.96994 0.040537 
152.107574 0.008521 
152.951782 0.040832 
152.989319 0.070003 
153.090988 0.707654 
153.127533 0.094759 
153.958984 0.120626 
154.122467 0.034149 
154.158905 0.157018 
154.945969 0.006693 
154.968063 0.022597 
155.070068 0.011334 
155.08522 0.022781 
156.077362 0.010676 
156.138412 0.564464 
156.93335 0.349899 
157.085724 0.022735 
157.101227 0.171084 
158.484024 0.008403 
158.995209 0.019436 
159.046768 0.013116 
159.080856 0.028144 
159.116867 0.641642 
161.096054 0.214008 
161.132507 0.638275 
163.005524 0.008822 
163.075363 0.143976 
163.096725 0.009706 
163.11171 0.286643 
163.148041 0.379095 
163.645721 0.008469 
164.078674 0.010332 
164.920593 0.450408 
164.987946 0.133681 
165.055069 0.012461 
165.090942 0.423021 
165.127335 0.449473 
167.055603 0.037532 
167.070389 0.011347 
167.106644 0.187112 
167.142502 0.019834 
168.054611 0.007539 
168.13826 0.055913 
168.982895 0.040333 
169.051956 0.022116 
169.101013 0.039859 
169.803009 0.008065 
170.153824 0.033196 
170.963272 0.008738 
170.978302 0.01048 
171.062561 0.018392 
171.0802 0.070102 
171.102478 0.009913 
171.116852 0.22852 
171.138138 0.009377 
171.185028 0.008705 
172.115753 0.011904 
172.907333 0.07009 
173.010818 0.134853 
173.079803 0.007541 
173.0961 0.104414 
173.132507 0.527195 
174.135162 0.007895 
174.952515 0.008929 
174.972534 0.066623 
174.990005 0.104773 
175.074936 0.022245 
175.096313 0.064607 
175.11171 0.350674 
175.148239 0.698208 
176.987732 0.273704 
177.005737 0.162401 
177.057388 0.106229 
177.090851 0.0474 
177.112122 0.182098 
177.127319 0.188901 
177.163605 0.214037 
178.241501 0.007673 
178.471817 0.00811 
179.002686 0.007936 
179.020859 0.007898 
179.106796 0.103971 
179.143082 0.054729 
180.5457 0.007213 
180.894257 0.336686 
180.961182 0.017282 
181.122284 0.084394 
182.047318 0.02035 
182.153717 0.011024 
182.890884 0.010054 
182.96228 0.016374 
183.100769 0.009431 
183.11702 0.074459 
184.000763 0.008967 
184.052734 0.011563 
184.119553 0.012387 
185.010361 0.007861 
185.041794 0.009945 
185.095398 0.008575 
185.132309 0.349103 
185.153458 0.052913 
187.026886 0.031935 
187.039032 0.27996 
187.111572 0.141363 
187.148239 0.831026 
188.151031 0.028232 
189.005493 0.324058 
189.090988 0.025438 
189.111954 0.12611 
189.12738 0.245788 
189.163757 1.192083 
190.166794 0.115526 
191.002838 0.016906 
191.021301 0.040643 
191.070206 0.009448 
191.106323 0.164652 
191.143066 0.107736 
191.179443 0.282385 
192.182297 0.010547 
192.961685 1.28183 
193.085709 0.071586 
193.122528 0.066992 
193.158585 0.081678 
194.962067 0.285905 
194.999786 0.174708 
195.13829 0.018698 
195.625504 0.007845 
195.96019 0.268457 
196.170135 0.010397 
196.868179 0.431396 
196.957779 0.016981 
197.131973 0.066499 
197.974243 0.018696 
197.998352 0.00836 
198.866592 0.012987 
199.027618 0.031928 
199.039017 0.599172 
199.075394 0.746401 
199.084793 0.008857 
199.111877 0.067326 
199.148102 0.299346 
199.18071 0.021907 
200.042374 0.014179 
200.079605 0.021665 
200.59079 0.00759 
201.0923 0.009679 
201.127533 0.150179 
201.163788 0.382727 
201.350739 0.008048 
203.021423 0.094851 
203.052643 0.055361 
203.070099 0.030111 
203.106613 0.035128 
203.142899 0.4299 
203.179428 0.375988 
204.087372 0.009732 
204.962814 0.023999 
205.070068 0.007873 
205.122162 0.092049 
205.158691 0.389683 
205.19548 0.012513 
207.102707 0.010004 
207.137985 0.059455 
207.174286 0.262587 
209.11705 0.108926 
209.132782 0.01555 
209.154266 0.011834 
210.185211 0.181938 
210.972214 1.01953 
211.147964 0.125673 
212.842255 0.07736 
212.972672 1.010675 
213.127655 0.122862 
213.163818 0.176488 
213.574142 0.206105 
213.588165 0.483773 
213.603989 0.207142 
213.970428 0.525351 
214.167236 0.009739 
214.96936 0.190337 
215.08902 0.142164 
215.106415 0.023983 
215.143051 0.382174 
215.179688 0.055428 
216.94754 0.00776 
217.121948 0.109903 
217.158707 0.363639 
217.194962 0.013225 
219.099396 0.007231 
219.138107 0.08961 
219.174316 0.421892 
221.153687 0.08544 
222.146683 0.075432 
222.898712 0.182561 
223.09758 0.007665 
223.14827 0.046526 
224.987823 0.016355 
225.163986 0.053381 
226.987564 0.010547 
227.04953 0.206712 
227.07016 100.0 
227.142731 0.0458 
227.179367 0.071053 
228.008987 0.009696 
228.073547 15.188037 
228.962769 0.008047 
229.075928 1.489411 
229.122238 0.117359 
229.158524 0.278462 
229.327499 0.007908 
230.079239 0.009375 
230.966614 0.179831 
231.137817 0.73581 
231.174316 0.146648 
232.945694 0.017425 
233.08168 0.010885 
233.116409 0.008217 
233.153473 0.537916 
233.896637 0.013785 
234.895386 0.040567 
234.957565 0.008545 
235.060165 0.009775 
235.134338 0.011054 
235.169144 0.034066 
235.892685 0.009369 
236.528046 0.010348 
237.027573 0.008422 
237.162704 0.022834 
238.913513 0.045344 
239.03241 0.034408 
239.14299 0.020206 
239.179611 0.023188 
240.146606 0.008173 
240.2677 0.008345 
240.908997 0.655828 
241.122711 0.037048 
241.158249 0.030849 
241.195099 0.023819 
242.12674 0.019068 
243.089355 0.007632 
243.138077 0.107385 
243.17392 0.039614 
244.961884 0.020589 
245.080994 0.444977 
245.139236 0.06988 
245.153656 0.272541 
247.169067 0.085791 
247.633148 0.009462 
248.958893 0.00814 
248.976944 0.049749 
248.991989 0.019112 
249.051636 0.012623 
249.184937 0.292193 
250.177658 0.1435 
250.893738 0.008561 
250.935425 0.10535 
251.025528 0.061438 
251.17981 0.00957 
251.907349 0.130145 
251.933731 0.008871 
252.904953 0.079717 
252.937393 0.009521 
252.949738 0.399954 
253.12233 0.008816 
253.159576 0.017128 
253.194031 0.021393 
253.902695 0.117612 
254.138504 0.040134 
255.125854 0.007511 
255.140656 0.122114 
255.174149 0.024696 
256.123901 0.008195 
257.153656 0.0281 
257.190643 0.01991 
258.159271 0.010319 
259.115234 0.312204 
259.169312 0.164267 
261.06076 0.063536 
261.184814 0.021279 
261.904968 0.009363 
263.196991 0.007572 
263.901733 0.012379 
264.909485 0.38668 
265.874878 0.007949 
267.174622 0.036192 
267.878876 0.010292 
267.930695 0.032671 
268.910065 0.04497 
268.943909 0.188232 
269.036041 0.019591 
269.189606 0.010998 
269.53244 0.009505 
269.907776 0.067577 
269.944946 0.028247 
269.996826 0.038665 
270.029266 0.009038 
270.905121 0.023329 
271.097931 0.010141 
271.169281 0.018093 
271.993896 0.009719 
273.184845 0.046508 
274.975372 0.007896 
276.205933 0.007618 
276.873535 0.011896 
279.071289 0.009691 
279.174896 0.03509 
279.916534 0.311539 
281.189789 0.033885 
281.911926 0.632919 
282.919647 0.413286 
283.168304 0.011297 
283.263062 0.054753 
283.961517 0.009918 
284.152802 0.025704 
285.184998 0.021815 
285.940643 0.064966 
286.920471 0.147685 
286.937714 0.011936 
287.054077 0.010988 
287.126862 0.01064 
287.200531 0.008469 
287.918274 0.363659 
288.915741 0.11953 
289.125427 0.022169 
290.947845 0.064663 
292.909973 0.074887 
292.930664 0.042348 
293.908356 0.161231 
294.88443 0.505592 
294.906555 0.110245 
295.168549 0.018235 
295.193726 0.687772 
295.927704 0.122964 
297.184998 0.07042 
297.813263 0.007838 
299.200623 0.072064 
299.831787 0.052967 
301.216858 0.032447 
301.826996 0.033439 
302.905701 0.009708 
303.141357 0.343191 
305.156769 0.010134 
305.30249 0.010879 
306.919769 0.554605 
307.874176 0.027992 
307.922974 0.008264 
308.920319 0.063224 
309.185974 0.00957 
309.863892 0.007955 
309.918213 0.597713 
309.944733 0.244587 
310.919983 1.340272 
310.941956 0.500014 
311.188385 0.089485 
311.294037 0.712697 
311.918182 2.446409 
312.298187 0.037448 
312.894165 0.013463 
312.916077 1.217456 
312.950623 0.009346 
313.037842 0.188572 
313.204468 4.612425 
315.002106 0.033427 
315.195862 0.008074 
317.84079 0.040532 
318.544617 0.007455 
319.836487 0.299856 
322.913879 0.011324 
323.935608 0.008162 
324.3255 0.171244 
324.931824 0.106788 
325.329865 0.014899 
325.885162 0.041983 
325.934235 0.137274 
326.932251 0.083875 
327.220276 0.124616 
327.876587 0.029372 
327.929352 0.155823 
327.954987 0.095143 
328.872437 0.043932 
328.930542 0.843559 
328.952576 0.891668 
329.002808 0.079716 
329.063629 0.008168 
329.138336 0.343227 
329.871735 0.008017 
329.928833 2.240687 
330.92691 1.950067 
331.215454 4.16737 
333.835571 0.022127 
334.843811 0.400393 
335.006226 0.010198 
335.234589 0.011431 
336.011108 0.007545 
336.838715 0.970916 
337.184113 0.008067 
337.216797 0.009635 
337.846466 0.168703 
341.236786 0.034029 
342.237335 0.00926 
342.947083 0.02234 
342.968719 0.010483 
343.856659 0.012446 
343.944244 0.108067 
344.943146 0.086741 
345.230774 0.201908 
345.984894 0.010122 
346.307831 0.313076 
346.855927 0.00782 
346.962769 0.022552 
347.167938 0.289632 
347.236908 0.013476 
349.183136 0.012536 
349.225586 0.026566 
349.848877 0.021336 
350.914124 0.010666 
351.824036 0.009195 
351.846161 0.710746 
352.852417 0.036913 
352.965668 0.010372 
353.018372 0.02436 
353.075287 0.061406 
353.247223 0.083599 
353.841827 0.217372 
354.849213 0.212709 
355.192261 0.010672 
356.848236 0.717889 
357.207672 0.068624 
358.843536 12.49735 
359.846252 1.183821 
360.838562 11.42528 
362.025177 0.009721 
362.25769 0.05049 
363.230652 0.024199 
363.264099 0.021126 
365.105042 0.265964 
365.248871 0.010785 
366.751801 0.010111 
367.858307 0.024979 
368.351898 1.901031 
368.924164 0.268344 
369.355438 0.210947 
369.835602 0.113111 
369.857971 0.019703 
369.925446 0.01105 
370.903809 0.274553 
371.162445 3.012919 
371.904083 0.0172 
372.165771 0.517325 
373.161224 0.020587 
373.207947 0.486413 
374.857727 0.348959 
374.987885 0.009359 
375.220795 0.010035 
375.847137 0.064943 
376.853851 5.586258 
377.220734 0.01249 
377.248016 0.012565 
377.856659 0.371662 
378.849121 5.059851 
381.83786 0.036443 
383.295807 0.011489 
385.310577 0.008825 
387.846436 0.022565 
388.834412 0.263035 
389.995026 0.009709 
390.870087 0.374867 
391.19342 0.178847 
391.219208 0.139354 
391.365601 0.808262 
392.149475 0.024801 
392.368744 0.084745 
392.865295 0.413623 
393.208923 1.253898 
393.857208 0.028515 
395.258026 0.02056 
395.294312 0.198156 
395.85199 0.028816 
396.258545 0.010017 
396.297485 0.021375 
397.307068 0.009941 
403.298828 0.073406 
405.313751 0.113677 
406.844849 2.560525 
407.189423 0.013014 
407.294067 0.045159 
407.84613 0.591995 
408.27832 0.044782 
408.844757 0.02276 
409.310547 0.010894 
413.274719 0.01042 
413.306885 0.079325 
415.299072 0.037358 
417.211884 0.138295 
417.857086 0.998324 
418.858612 0.028967 
419.187073 0.078401 
419.21167 0.008806 
419.253632 0.011411 
419.851593 2.077952 
420.860504 0.019271 
421.276337 0.009461 
421.309967 0.107998 
423.325195 0.08091 
423.563202 0.008373 
424.855927 0.301438 
425.858643 0.008255 
431.294159 1.795153 
432.297424 0.519693 
433.276947 0.012897 
433.30899 1.253786 
433.870789 0.021174 
435.867584 0.384488 
437.86261 0.899055 
447.29245 1.124735 
447.346924 0.299554 
447.847321 0.05421 
448.223572 0.064893 
448.29599 11.063992 
449.200775 1.761945 
449.229858 0.060073 
449.304565 19.600941 
449.341949 0.026417 
450.111847 1.310087 
450.202545 0.298698 
450.239746 0.545263 
450.308075 5.577594 
450.341125 0.017986 
450.433472 0.025976 
450.745087 0.168085 
451.117188 0.441031 
451.215027 12.622562 
451.249817 1.802336 
451.282654 2.293724 
451.319366 7.708958 
451.877655 0.056143 
465.858582 0.019326 
467.312866 0.420302 
467.497864 0.009312 
468.316589 0.048823 
END IONS

