BEGIN IONS
PEPMASS=635.35
CHARGE=1+
COMPOUNDNAME=Astaxanthin
LIBRARYQUALITY=3
SMILES=N/A
INCHIKEY=MQZIGYBFDRPAKN-QISQUURKSA-N
INCHI=InChI=1S/C40H52O4/c1-27(17-13-19-29(3)21-23-33-31(5)37(43)35(41)25-39(33,7)8)15-11-12-16-28(2)18-14-20-30(4)22-24-34-32(6)38(44)36(42)26-40(34,9)10/h11-24,35-36,41-42H,25-26H2,1-10H3/b12-11+,17-13+,18-14+,23-21+,24-22+,27-15+,28-16+,29-19+,30-20+
MSLEVEL=2
SOURCE_INSTRUMENT=N/A-ESI-QFT
FILENAME=library_mgf.mgf
SEQ=*..*
IONMODE=positive
ORGANISM=MONA
NAME=Astaxanthin [M+K]+
PI=MoNA
DATACOLLECTOR=MoNA:VF-NPL-QEHF003109
PUBMED=N/A
SUBMITUSER=mwang87
TAGS=
SPECTRUMID=CCMSLIB00004694172
SCANS=3109
50.690678 0.076759 
51.66642 0.070344 
51.783501 0.07357 
51.982761 0.070302 
52.078842 0.069967 
52.678905 0.07095 
53.002918 0.184135 
53.913628 0.065029 
54.353054 0.074581 
55.005836 0.079507 
55.018612 0.423343 
55.054993 3.72302 
55.059498 0.070594 
55.533768 0.074522 
56.050228 0.157889 
56.304352 0.082708 
56.446106 0.079644 
56.906841 0.078852 
57.03426 1.0974 
57.070629 30.182579 
58.074059 0.596803 
58.643372 0.079822 
59.049877 5.123475 
59.061085 0.900231 
59.856342 0.069508 
60.045139 6.097605 
60.210472 0.061585 
60.341648 0.073875 
60.822617 0.071781 
61.011311 0.227874 
61.43259 0.079738 
62.060772 0.199078 
62.982452 5.261638 
63.063297 0.077991 
63.631104 0.100125 
64.857559 0.08231 
64.978127 0.08146 
66.960823 0.069298 
67.054932 7.941803 
67.056816 0.117314 
67.573418 0.089416 
68.058205 0.083082 
69.034187 1.450909 
69.03614 0.081375 
69.070572 8.357608 
69.234451 0.071682 
69.762405 0.0687 
70.065804 1.422244 
71.049767 2.493892 
71.061073 1.002077 
71.086205 38.405201 
72.045334 0.076983 
72.081436 0.229768 
72.089523 1.436699 
72.132439 0.075246 
73.029022 3.362817 
73.047455 0.712318 
73.065445 5.449866 
74.097046 1.63227 
74.4851 0.084059 
75.044701 0.636566 
75.260262 0.098011 
75.302475 0.075045 
76.054672 0.084098 
76.076378 0.116095 
77.240089 0.081352 
77.466431 0.078986 
78.956284 0.349588 
79.021797 5.529822 
79.054832 2.629297 
79.636475 0.07587 
80.055038 2.63084 
80.948441 4.924343 
81.019096 0.723791 
81.034035 0.214224 
81.070473 11.301513 
81.072899 0.128207 
81.108856 0.076408 
82.065636 0.085527 
82.07383 0.325271 
82.529655 0.08167 
82.945435 1.412757 
83.049744 3.528886 
83.086098 8.150012 
83.863678 0.067836 
84.089569 0.080976 
85.028946 1.366476 
85.065338 2.519854 
85.101715 21.823788 
86.060677 0.112952 
86.096939 0.792307 
86.105057 0.705778 
87.044586 20.785713 
87.635162 0.066178 
88.047913 0.251568 
88.076118 0.209359 
88.578705 0.077882 
88.709579 0.074006 
88.978653 0.398023 
89.060234 100.0 
89.469803 0.066441 
90.060883 0.100916 
90.063545 3.047227 
90.091911 0.226944 
91.054779 2.761974 
91.057838 11.908061 
91.07576 0.23736 
92.057617 0.592002 
92.061127 0.101027 
93.054665 1.407055 
93.070343 6.344049 
93.339104 0.07503 
93.881866 0.079928 
94.026848 0.085294 
94.073746 0.25906 
94.280121 0.089964 
95.049561 4.798061 
95.085945 13.574546 
96.089355 0.699676 
96.922157 1.63783 
97.028923 0.299853 
97.065224 2.816714 
97.101631 6.538126 
98.783775 0.076919 
98.919449 0.286962 
99.044479 2.152463 
99.080849 1.3347 
99.117172 0.421521 
100.112396 0.220872 
101.003563 1.115051 
101.060097 1.265242 
101.820496 0.071004 
102.067924 2.213473 
102.091774 1.166924 
102.750183 0.081311 
103.039192 0.528489 
103.07576 0.083165 
104.992661 3.64409 
105.07019 3.396687 
105.073578 0.173573 
106.05011 0.37777 
107.049492 0.866878 
107.070618 4.103927 
107.085846 6.764265 
107.967133 4.830282 
108.089386 0.099874 
108.345497 0.081453 
109.028778 0.514309 
109.065071 3.600698 
109.06855 0.082154 
109.101501 12.552302 
110.104774 0.407089 
111.044403 1.904099 
111.080711 3.296125 
111.117111 2.591492 
112.075966 0.492756 
112.205971 0.079424 
112.896057 0.096661 
113.023483 0.093428 
113.059929 2.249412 
113.09642 0.646555 
113.476494 0.072321 
114.055153 0.080043 
114.091698 0.098347 
115.05658 0.104235 
115.07579 0.341061 
115.086868 2.139083 
116.070892 0.237757 
117.054749 0.188381 
117.070107 0.539826 
117.091316 2.489173 
118.086243 0.116225 
118.971893 0.545791 
119.049461 1.054721 
119.08577 5.44231 
120.003426 0.229204 
120.987373 0.302088 
121.06498 13.760645 
121.101334 6.202403 
122.068413 1.269785 
122.104767 0.245573 
122.352051 0.110928 
123.04422 0.84627 
123.080612 3.804911 
123.117027 3.974883 
123.940865 1.266859 
124.08075 0.671904 
124.12056 0.084322 
124.964508 0.089642 
125.059883 1.951817 
125.096245 4.213055 
125.132744 0.434473 
125.448669 0.07883 
127.039062 0.276053 
127.075485 1.491571 
127.111732 0.259005 
127.148102 0.232988 
128.107071 0.182843 
128.953568 1.402815 
129.054794 0.834284 
129.07045 0.090559 
131.070312 3.019381 
131.085587 2.408056 
132.101898 0.126163 
132.987396 0.634339 
133.064957 0.729627 
133.085968 38.012341 
133.10112 4.041957 
134.089386 1.278562 
135.002884 4.685677 
135.043991 0.33667 
135.08046 5.938499 
135.116852 5.30097 
135.560852 0.078906 
135.777863 0.079984 
136.083633 0.091719 
136.119125 0.092672 
136.968658 0.076157 
137.059738 1.997081 
137.096085 3.534211 
137.132523 1.480963 
139.03894 0.33027 
139.075363 1.395054 
139.111893 0.509376 
139.805328 0.07863 
140.068146 0.477525 
140.959076 0.777697 
141.055023 0.095716 
141.090851 0.261725 
141.526077 0.072247 
141.544815 0.092938 
142.122101 0.092853 
142.938461 0.595295 
143.070236 0.221093 
143.085587 1.053856 
144.927567 0.176058 
145.064972 0.222007 
145.101196 3.167849 
146.093689 0.215915 
146.10498 0.106928 
147.002945 0.1055 
147.043945 0.536494 
147.080414 8.160917 
147.116806 5.889351 
147.245911 0.081514 
148.083633 0.36544 
148.120239 0.380509 
149.059631 0.821239 
149.0961 6.609514 
149.132477 2.66869 
149.940186 0.089521 
150.013657 0.983519 
150.976959 0.225798 
150.998322 0.077475 
151.075439 1.774745 
151.111725 1.418706 
151.148376 0.276107 
152.10672 0.100589 
153.05452 0.610072 
153.091003 1.672332 
153.127716 0.208099 
154.122604 2.311068 
155.106918 0.330325 
156.985367 0.083427 
157.085999 0.091082 
157.101227 1.639068 
158.010925 0.096592 
159.080658 1.549128 
159.116699 2.922688 
160.119934 0.08071 
161.018784 0.229969 
161.059448 0.216066 
161.096115 2.94582 
161.132187 3.172294 
163.075333 1.739647 
163.111633 4.275315 
163.148254 1.304378 
164.114975 0.116632 
164.920563 4.730167 
164.928711 0.125241 
165.054382 0.485553 
165.091064 7.179187 
165.127396 0.220435 
165.880951 0.079267 
166.094315 0.412036 
166.122177 0.092703 
167.008331 0.082945 
167.03418 0.091913 
167.055542 1.287227 
167.07019 0.340693 
167.106796 0.651917 
169.085037 0.092777 
169.101318 0.242544 
170.117584 0.441425 
171.080521 0.236135 
171.101379 0.200072 
171.116928 1.513688 
171.149261 0.724234 
172.13327 0.089195 
173.096146 1.664455 
173.117386 1.442368 
173.132614 2.514499 
173.527664 0.079033 
174.013931 0.39632 
174.135849 0.117647 
174.257706 0.079536 
174.996063 0.191404 
175.033524 0.075615 
175.075333 0.944275 
175.096497 1.349546 
175.111679 2.205384 
175.148209 1.377219 
176.082016 0.129623 
177.054199 0.117594 
177.090317 1.75362 
177.112091 5.30542 
177.12735 1.712734 
177.16394 0.234089 
179.070465 0.449263 
179.106567 0.914275 
179.143219 0.36704 
179.970154 0.394589 
180.100006 0.127887 
180.894363 0.331451 
181.085693 0.435779 
182.118713 0.113424 
182.153992 0.257912 
183.101776 0.168979 
183.116653 0.517443 
184.073181 0.333555 
184.979385 0.242303 
185.081482 0.178097 
185.096054 0.347155 
185.132584 1.036889 
185.961304 0.209263 
186.927811 0.200712 
186.995438 0.371336 
187.075684 0.51737 
187.111725 1.348634 
187.148514 0.51189 
188.021515 0.112333 
188.116257 0.083297 
189.09079 0.792171 
189.112091 1.009159 
189.127472 1.956382 
189.164017 0.100096 
190.096436 1.102235 
190.912094 0.097696 
191.070206 0.668639 
191.106522 1.425166 
191.14296 0.590573 
192.865753 0.0857 
193.085892 0.367147 
193.122375 0.913787 
193.131149 0.185875 
193.195648 0.083567 
194.11525 3.568666 
195.064758 0.491801 
195.099838 0.105295 
195.117249 0.458212 
197.096451 0.234341 
197.132751 0.428133 
198.964844 0.08874 
199.074417 0.088278 
199.111603 0.413201 
199.148193 0.247983 
201.055008 0.111927 
201.08931 1.5442 
201.127487 1.336069 
201.162888 0.102329 
203.070312 0.887503 
203.106171 0.798352 
203.14325 0.530322 
203.179733 0.207655 
204.060898 0.090741 
204.488663 0.083252 
205.085693 0.233074 
205.122238 0.499694 
205.158752 0.09166 
206.48468 0.079321 
207.064606 0.109792 
207.101257 0.126684 
207.116776 0.099147 
207.138168 0.304673 
207.174637 0.0931 
208.131683 0.649611 
209.096359 0.08781 
209.11705 3.982547 
209.667191 0.082732 
210.110138 0.4782 
210.185822 1.171961 
210.556824 0.076061 
210.971252 0.112692 
211.095093 0.288308 
211.111984 0.748514 
211.14859 0.217776 
211.577515 0.077925 
213.090134 0.407408 
213.111374 0.105209 
213.127396 0.668643 
213.163254 0.094113 
214.204086 0.086444 
215.06987 0.09825 
215.104904 1.42113 
215.127731 0.097952 
215.143188 0.22473 
215.179626 0.216019 
216.123138 0.492914 
216.148071 0.090936 
217.050049 0.368494 
217.081085 2.788326 
217.10463 0.358267 
217.122345 0.239259 
217.158707 0.088635 
217.914291 0.07709 
218.075592 0.154276 
219.097443 0.247074 
219.138077 0.096211 
219.174301 0.648341 
219.210327 0.085752 
220.13147 0.085088 
220.178238 0.097995 
221.081528 0.095736 
221.15358 0.09357 
222.146652 0.843769 
223.063461 1.630949 
223.096191 0.140037 
223.147232 0.089122 
224.064423 0.098634 
224.162537 0.218371 
225.043167 1.647589 
225.061218 0.102748 
225.089066 0.783526 
226.140106 0.082706 
227.039307 0.240495 
227.104263 5.927954 
227.127716 0.779617 
227.143509 0.288575 
227.200668 1.001101 
228.110931 1.29806 
229.001755 0.098203 
229.122177 1.475361 
229.195953 0.099777 
230.126511 0.094846 
231.100113 0.430776 
231.138138 0.671036 
232.092056 5.842826 
232.104233 0.137852 
233.095963 0.205108 
233.132599 0.102034 
233.154694 0.103672 
233.190002 0.292602 
234.14711 0.073596 
235.060547 0.476928 
235.096573 1.891523 
235.133057 0.195889 
236.162628 0.284066 
236.237015 0.39374 
237.112198 0.412758 
237.148514 0.100361 
238.252609 0.129168 
239.032501 0.179466 
239.086639 0.075243 
239.106644 0.281207 
241.121552 2.391402 
241.144562 0.080009 
242.126358 0.105297 
243.100616 0.102723 
243.137711 0.265505 
244.086639 0.089569 
245.047287 0.101039 
245.116333 0.23053 
245.153076 0.091108 
245.191162 0.087103 
245.226074 0.16979 
246.107269 0.123811 
246.924606 0.078985 
247.132675 0.141727 
247.20549 16.785894 
248.066284 0.084015 
248.161743 0.41352 
248.209076 2.712177 
249.111649 0.084645 
250.141663 0.334438 
250.177597 8.937369 
250.252884 1.658829 
251.10788 0.077367 
251.140778 0.11582 
251.162079 0.273344 
251.181137 0.822073 
252.377625 0.077361 
253.107071 1.432988 
253.121536 0.100128 
254.833939 0.074786 
255.135178 0.222579 
255.231598 2.435033 
256.143097 0.256958 
256.234985 0.373317 
257.117004 1.236194 
258.278625 0.090515 
259.132477 2.637746 
260.057983 0.879445 
260.122864 0.681642 
260.696106 0.107296 
261.041412 0.093502 
261.112091 0.348416 
261.221252 0.362793 
262.058899 0.305255 
262.095825 0.088911 
262.25293 0.098048 
263.0914 0.086224 
263.23703 0.136016 
264.268951 0.921656 
265.271759 0.119984 
265.991364 0.861945 
266.173004 1.221924 
266.247894 0.301879 
267.065125 0.073773 
267.102692 0.105988 
267.121826 0.105408 
267.139038 0.265311 
267.156586 11.219086 
267.171326 0.299821 
268.160706 0.812059 
269.116028 0.081391 
271.130707 0.09613 
272.123169 0.097082 
273.11145 0.087081 
273.220917 0.187742 
274.138763 0.384892 
274.739471 0.083863 
275.127533 0.549338 
275.159363 0.970543 
277.215759 0.507313 
280.263977 0.697502 
281.152039 0.352329 
281.247772 0.25523 
281.912262 0.760827 
282.204071 0.916124 
282.279053 3.429527 
283.171661 0.099694 
283.263153 6.728792 
283.281128 0.129065 
284.266846 0.627961 
285.009857 1.486778 
285.111908 0.900243 
286.010132 0.28941 
287.007202 1.176527 
287.127075 0.098619 
287.146881 0.100893 
288.154236 13.69186 
289.158112 1.602136 
289.25177 0.123031 
290.947357 0.126811 
291.231506 8.603552 
292.235443 1.613057 
293.15274 0.097536 
295.167603 0.19192 
296.229919 0.074116 
296.256683 0.104587 
297.145996 0.094633 
298.109467 0.156572 
299.061707 1.104697 
300.061859 0.373399 
300.127045 0.11695 
300.148346 0.723028 
301.058563 0.443182 
301.211304 0.538037 
303.020966 0.111963 
304.104065 1.200865 
304.904266 0.086591 
306.920502 0.241655 
309.146393 0.405069 
309.181519 0.090069 
309.2789 3.8925 
309.497162 0.073215 
310.281921 0.113505 
310.28894 0.100421 
310.310059 5.346144 
311.127014 0.734105 
311.162476 0.278684 
311.294525 0.624007 
311.312897 0.09562 
313.694305 0.070301 
314.144775 0.090986 
316.120911 0.4948 
318.159393 0.374062 
318.241882 0.266 
320.256134 0.272707 
320.91925 0.295528 
321.182404 0.089679 
322.914398 6.813173 
323.917694 0.55394 
324.169403 0.552648 
325.211639 0.322823 
327.227234 1.0857 
329.243164 0.481215 
333.18338 0.125949 
333.242981 0.09478 
334.235626 0.208369 
335.166199 0.14313 
335.25827 0.100723 
337.023102 0.249238 
337.179474 0.192423 
337.274323 0.474597 
339.158356 0.201749 
339.290527 0.177238 
341.235809 0.215445 
343.116394 1.992757 
344.976349 1.116984 
345.944519 0.262656 
346.974152 0.165422 
347.146271 1.202209 
347.230164 0.204795 
347.97345 0.098324 
349.179688 0.091271 
351.150665 0.074857 
352.332581 0.091197 
353.17627 0.232707 
355.069794 0.227572 
355.191833 0.444763 
357.067566 0.197063 
357.147339 3.592508 
358.149963 0.422345 
358.843811 0.238807 
359.028473 2.243302 
359.222137 0.455765 
360.028809 0.990863 
360.838409 3.727689 
361.026123 2.508385 
361.236542 4.593136 
361.84256 0.220464 
362.026245 0.558129 
363.225342 0.098924 
365.105713 1.290046 
371.162964 4.995174 
372.166199 0.669605 
373.120789 0.236342 
374.302551 0.961036 
376.318573 2.661398 
377.211761 0.085784 
377.321991 0.203424 
378.849396 1.563157 
379.256866 0.095893 
380.363953 0.255673 
382.261658 0.079042 
383.146851 0.118029 
385.177948 3.446238 
386.181 0.491067 
391.256409 0.087873 
393.085419 0.095127 
394.844727 0.356318 
396.841522 0.261489 
397.258636 0.467911 
401.208252 0.091474 
405.144745 3.184264 
405.203186 0.081457 
406.148834 0.110575 
406.329041 0.110422 
406.845703 0.087014 
415.225006 0.112697 
417.857635 1.26548 
418.99527 1.316846 
419.851868 9.751499 
419.881104 0.117638 
420.855988 1.539855 
420.994965 0.106647 
425.160065 1.373076 
431.362823 0.114422 
433.868073 0.102599 
435.182281 0.233931 
435.870239 0.25109 
436.852844 1.228295 
437.838074 0.198743 
437.865723 3.485456 
438.854797 0.412863 
441.669769 0.084261 
447.216553 0.161546 
447.347473 1.874321 
447.84845 0.1883 
448.351624 0.099273 
451.878571 0.155166 
453.190521 0.843437 
453.858276 1.891654 
454.857849 1.059713 
455.854004 3.134236 
456.85672 0.190513 
458.751831 0.077665 
460.953186 0.120854 
465.226929 0.422697 
465.331879 0.081677 
469.257843 9.750178 
475.211884 0.824557 
477.14566 0.109002 
478.86499 4.414731 
479.31543 0.123102 
479.868225 1.066314 
483.23938 0.421009 
491.203766 0.095492 
493.221588 10.949733 
494.880829 0.096032 
496.158356 0.20834 
496.877411 1.095138 
497.879822 0.142256 
499.397369 0.082964 
500.231354 0.079076 
508.725952 0.084548 
509.308838 0.382724 
511.232941 4.255453 
513.375977 0.204285 
525.18219 0.143045 
548.331177 0.090022 
551.300842 0.491057 
553.329041 0.157271 
569.311157 0.093369 
572.403381 2.270499 
573.355774 0.215841 
573.406616 0.110558 
575.423462 0.090853 
577.203491 0.10606 
589.36438 0.093601 
591.381531 0.669988 
602.488037 0.509707 
603.487671 0.087969 
604.429321 0.505583 
604.489685 0.663011 
606.393311 0.146492 
607.375488 0.984198 
617.359497 0.309597 
619.363037 2.482314 
633.328308 1.359003 
633.453979 31.827667 
633.546509 0.135209 
634.150146 10.054931 
634.330139 3.416591 
634.457703 20.526423 
634.512756 0.540755 
634.626892 0.401089 
635.148315 8.194385 
635.28009 1.447061 
635.370056 24.339933 
635.436035 41.46743 
635.518555 1.042195 
636.147034 3.136879 
636.37384 10.313297 
636.439514 13.711834 
636.514465 0.759385 
636.907166 0.305926 
637.105469 0.783088 
637.15094 0.134047 
637.374695 6.740609 
637.435425 1.19521 
637.539612 2.563869 
END IONS

