BEGIN IONS
TITLE=Scan Number: 6345
PEPMASS=319.14999
CHARGE=1+
COMPOUNDNAME=zearalenone
LIBRARYQUALITY=3
SMILES=C[C@H]1CCCC(=O)CCC/C=C/c2cc(cc(c2C(=O)O1)O)O
INCHIKEY=MBMQEIFVQACCCH-QBODLPLBSA-N
INCHI=
MSLEVEL=2
SOURCE_INSTRUMENT=LC-ESI-Orbitrap
FILENAME=f.liululu/ZEN-SAMLL.mzXML;
SEQ=*..*
NOTES=
IONMODE=Positive
ORGANISM=GNPS-LIBRARY
NAME=zearalenone M+H
SPECTRUMID=CCMSLIB00003061498
ACTIVATION=CID
INSTRUMENT=ion trap
SCANS=6345
55.016861 1877.420654 
55.017246 6502.973145 
55.017635 14383.209961 
55.018021 22911.863281 
55.01841 23600.146484 
55.018795 15130.022461 
55.019184 7012.856445 
55.019569 1459.284302 
58.790775 1747.511963 
58.791203 2672.279785 
58.79163 2856.82959 
58.792057 2210.276611 
58.792484 1157.297119 
60.577908 1549.768311 
60.578354 2433.506348 
60.5788 2755.190674 
60.579247 2259.085205 
60.579697 1228.928711 
60.71767 1032.248901 
60.718121 2209.06543 
60.718571 3030.187988 
60.719017 2881.19458 
60.719467 1839.177246 
69.067764 940.538635 
69.068306 5508.03125 
69.068855 20494.648438 
69.069397 37831.644531 
69.069939 52353.980469 
69.070488 43107.96875 
69.07103 25529.78125 
69.071571 9117.250977 
69.072121 2347.139648 
69.072662 1359.105103 
74.904526 1191.249268 
74.905136 2281.086914 
74.905754 2803.88916 
74.906372 2410.801514 
74.906982 1396.085449 
79.053055 1258.848389 
79.053719 2583.275635 
79.05439 3314.931396 
79.055054 2926.179443 
79.055717 1717.338745 
85.062637 848.220154 
85.063385 2321.575928 
85.064125 3839.319824 
85.064873 4535.106934 
85.065613 3968.880859 
85.06636 2537.475342 
85.067101 1113.574829 
90.288437 1284.892456 
90.289246 2383.42041 
90.290062 2800.810547 
90.290878 2267.380615 
90.291687 1203.297729 
91.052444 1642.201782 
91.053268 3340.55249 
91.054092 4359.943359 
91.054916 3968.912354 
91.05574 2501.463135 
91.056564 935.88501 
97.061821 1829.553223 
97.062729 7599.614258 
97.063637 14643.913086 
97.064545 21269.589844 
97.065453 18695.972656 
97.06636 11222.938477 
97.067268 4273.798828 
97.068176 538.56189 
103.149475 1477.102783 
103.150467 2764.963379 
103.151466 3641.060791 
103.152458 3478.817139 
103.15345 2351.438721 
103.154442 945.901794 
105.067741 1561.569824 
105.068764 2872.349121 
105.069778 3497.180908 
105.070801 3076.674316 
105.071823 1966.9198 
110.667305 1042.918945 
110.668411 2247.523438 
110.669518 2831.700439 
110.670616 2374.009766 
110.671722 1243.702271 
115.051277 1601.332764 
115.052452 3197.553467 
115.053619 4432.519531 
115.054787 4535.354492 
115.055962 3438.070801 
115.057129 1839.509766 
117.067177 1438.596313 
117.068382 2924.51709 
117.06958 3805.067871 
117.070786 3392.811279 
117.071983 1972.024292 
119.082344 1444.65271 
119.08358 2815.04834 
119.084816 3659.900146 
119.086044 3317.137939 
119.08728 1973.57959 
123.039803 1246.290527 
123.041092 2606.833008 
123.042389 3854.469482 
123.043686 4070.174805 
123.044975 2993.993652 
123.046272 1350.400269 
125.093651 2228.196777 
125.094978 3777.26123 
125.096306 4278.675293 
125.097633 3279.224854 
125.098961 1529.663452 
129.067383 1743.240601 
129.068771 3199.594727 
129.07016 3856.355225 
129.071548 3160.994629 
129.072952 1606.151611 
131.082275 1491.39502 
131.08371 3399.821533 
131.085129 4902.916992 
131.086548 4780.419434 
131.087982 3063.22168 
131.089401 1070.788818 
141.064438 1857.225342 
141.066025 4738.894043 
141.067627 9855.023438 
141.069214 14956.90332 
141.070801 14056.972656 
141.072388 9071.757812 
141.073975 2788.782715 
141.075562 719.748779 
147.040115 1655.469482 
147.041809 3387.28125 
147.043488 4545.193848 
147.045181 4352.525391 
147.046875 3004.062012 
147.048569 1403.455811 
157.057541 1351.856201 
157.059418 5621.380859 
157.061279 17739.939453 
157.063141 30394.240234 
157.065018 39264.539062 
157.066879 30344.078125 
157.068756 17397.03125 
157.070618 5220.519531 
157.072479 375.2966 
161.052505 1167.298828 
161.054459 2505.099609 
161.056396 7781.121582 
161.058334 13417.424805 
161.060272 15751.428711 
161.06221 10765.418945 
161.064148 5292.626465 
161.066086 1665.85376 
163.034348 1531.162964 
163.036316 2702.278809 
163.0383 3392.491943 
163.040268 3075.581299 
163.042236 1887.956665 
165.012848 1375.350342 
165.014862 3344.921631 
165.016861 5474.082031 
165.018875 6166.820801 
165.020889 4832.328125 
165.022903 2487.387939 
173.053741 1372.065918 
173.055893 3136.36377 
173.05806 4853.208984 
173.060211 5396.96582 
173.062378 4366.36377 
173.064529 2468.199951 
173.066696 832.783813 
175.033264 2246.907715 
175.035461 4578.864746 
175.037659 6478.921387 
175.039856 6637.118652 
175.042053 4913.529297 
175.04425 2506.898193 
175.046448 811.168457 
175.068405 1139.228394 
175.070602 6314.579102 
175.0728 13002.224609 
175.074997 19316.933594 
175.077194 16805.515625 
175.079391 9728.098633 
175.081589 3100.932861 
175.083786 411.338287 
177.049194 1500.936401 
177.051422 3263.953369 
177.053665 4616.660645 
177.055893 4597.827148 
177.058136 3188.851562 
177.060364 1369.416626 
185.050385 1640.07019 
185.05278 9581.831055 
185.055161 28104.462891 
185.057541 47650.242188 
185.059937 59258.617188 
185.062317 44475.730469 
185.064713 25401.46875 
185.067093 8220.973633 
185.069489 1696.618164 
187.065536 1451.966309 
187.067963 7652.49707 
187.070389 26118.949219 
187.072815 48025.71875 
187.075241 67089.054688 
187.077667 56373.253906 
187.080093 33501.5625 
187.08252 12228.745117 
187.084961 2362.513428 
189.046524 1732.876831 
189.048981 6949.054199 
189.051453 13476.019531 
189.053909 19711.201172 
189.056381 17503.216797 
189.058838 10355.304688 
189.06131 3803.5354 
189.063782 109.034149 
199.067581 1146.814819 
199.070251 3207.48999 
199.072906 5859.274902 
199.075577 7184.080566 
199.078247 6166.637207 
199.080902 3620.772705 
199.083572 1303.147583 
203.05867 1322.900757 
203.061417 4917.447266 
203.064163 17139.425781 
203.06691 32696.279297 
203.069641 47485.511719 
203.072388 42624.75 
203.075134 26037.869141 
203.077881 10687.744141 
203.080627 2415.320312 
203.083374 333.847809 
205.076965 822.645752 
205.079758 2946.841309 
205.082535 8485.477539 
205.085327 12907.264648 
205.088104 12122.779297 
205.090897 7294.840332 
205.093689 2817.227539 
205.096466 972.447876 
213.045471 697.967346 
213.048416 2536.565674 
213.051361 4738.316406 
213.054321 5921.024414 
213.057266 5213.990234 
213.060211 3183.310303 
213.063171 1230.598999 
215.062286 1459.410522 
215.065277 3219.2854 
215.068283 4592.658691 
215.071274 4661.865723 
215.074265 3389.029053 
215.077255 1651.621216 
226.056015 1032.495361 
226.059235 2445.626709 
226.062469 3326.774902 
226.065689 2969.136475 
226.068909 1673.902466 
227.39328 1598.318481 
227.39653 2722.603271 
227.39978 3098.714844 
227.40303 2508.382568 
227.406281 1382.322144 
229.07756 1018.541992 
229.080856 2882.511475 
229.084137 4661.526855 
229.087433 4981.941895 
229.090714 3644.522949 
229.094009 1718.53833 
231.006836 1375.943848 
231.010162 2770.391113 
231.013504 3453.58252 
231.01683 2900.342529 
231.020157 1562.279175 
231.053467 1007.70575 
231.056793 5051.617676 
231.060135 11614.760742 
231.063461 18690.675781 
231.066788 19711.355469 
231.070129 12978.640625 
231.073456 6406.083984 
231.076782 1489.397217 
233.348907 1610.630005 
233.352295 2896.534424 
233.355667 3503.650635 
233.359055 3067.304932 
233.362427 1908.421143 
241.078506 1434.816772 
241.082062 3002.169922 
241.085617 3926.275879 
241.089157 3479.962646 
241.092712 2002.506104 
265.111847 2284.897217 
265.115967 5187.415527 
265.120056 10534.210938 
265.124146 11071.853516 
265.128235 5664.034668 
265.132324 2633.063965 
265.136414 872.9198 
267.079742 2478.065186 
267.083893 3823.859619 
267.088043 3913.457764 
267.092163 2647.324951 
267.096313 982.648499 
283.113922 1532.942993 
283.118439 5953.113281 
283.122955 21196.490234 
283.127472 39930.046875 
283.131989 57079.980469 
283.136505 49468.136719 
283.141022 29808.763672 
283.145538 11575.848633 
283.150055 2788.498291 
283.154572 1231.896362 
301.121002 346.548584 
301.125946 3279.533936 
301.13089 14669.794922 
301.135864 31328.5 
301.140808 49136.921875 
301.145782 48904.796875 
301.150726 31250.111328 
301.155701 14719.110352 
301.160645 4051.899658 
301.165588 1307.153931 
319.133209 1646.474976 
319.138611 8561.655273 
319.144012 25402.984375 
319.149445 43482.796875 
319.154846 53264.390625 
319.160248 39181.375 
319.165649 21795.101562 
319.171051 6755.393555 
319.176483 2784.941895 
319.181824 3245.097656 
319.187225 5301.162109 
319.192627 3639.944092 
319.198029 1683.816284 
END IONS

