BEGIN IONS
PEPMASS=468.266
CHARGE=1+
COMPOUNDNAME=TOBRAMYCIN
LIBRARYQUALITY=3
SMILES=N/A
INCHIKEY=NLVFBUXFDBBNBW-PBSUHMDJSA-N
INCHI=InChI=1S/C18H37N5O9/c19-3-9-8(25)2-7(22)17(29-9)31-15-5(20)1-6(21)16(14(15)28)32-18-13(27)11(23)12(26)10(4-24)30-18/h5-18,24-28H,1-4,19-23H2/t5-,6+,7+,8-,9+,10+,11-,12+,13+,14-,15+,16-,17+,18+/m0/s1
MSLEVEL=2
SOURCE_INSTRUMENT=N/A-ESI-QFT
FILENAME=library_mgf.mgf
SEQ=*..*
IONMODE=positive
ORGANISM=MONA
NAME=TOBRAMYCIN [M+H]+
PI=MoNA
DATACOLLECTOR=MoNA:VF-NPL-QEHF011826
PUBMED=N/A
SUBMITUSER=mwang87
TAGS=
SPECTRUMID=CCMSLIB00004702889
SCANS=11826
50.240891 0.121475 
50.481197 0.11204 
51.224117 0.10103 
51.695499 0.085363 
51.940769 0.329114 
52.142689 0.11712 
52.464027 0.1072 
52.679993 0.100359 
52.852234 0.084029 
53.002968 4.111419 
53.039375 2.44285 
53.366131 0.088281 
53.998238 0.134516 
54.073208 0.097892 
54.800159 0.094354 
55.018646 2.813536 
55.054981 21.428801 
55.641476 0.115151 
55.892426 0.099052 
55.935154 2.820908 
56.050266 1.58587 
56.058403 0.298202 
56.411366 0.101416 
56.965515 14.847098 
56.990894 0.097247 
57.034294 1.905078 
57.036507 0.103567 
57.047771 0.107777 
57.070629 100.0 
57.362206 0.10301 
57.566483 0.121847 
57.935513 8.926771 
58.065891 4.02882 
58.073997 4.096726 
58.500645 0.105978 
58.933441 2.170125 
59.049877 13.094011 
59.061127 6.715505 
59.967171 0.10684 
59.990978 24.36916 
60.00869 0.088089 
60.045292 0.275061 
61.011372 27.871981 
61.986889 0.251324 
62.019218 4.002551 
62.060783 4.177357 
62.198029 0.099 
62.982399 2.597709 
63.007164 0.163735 
63.420425 0.123813 
63.864418 0.106133 
63.914726 0.104382 
63.977009 0.101691 
63.998447 0.125286 
64.744553 0.095396 
65.039322 4.691928 
65.349167 0.116886 
65.999146 0.105245 
67.054901 54.907181 
68.050209 0.134693 
68.058258 1.900906 
69.034187 1.287927 
69.070518 16.064383 
69.154877 0.107941 
69.889175 0.115245 
70.065819 1.854325 
70.073906 0.197285 
70.493813 0.104358 
70.684776 0.093659 
70.958549 1.378734 
71.049828 3.619961 
71.086159 10.912709 
71.261368 0.089258 
71.823441 0.086857 
71.929924 0.633597 
71.952621 0.097298 
72.045006 1.297777 
72.079277 0.100585 
72.081436 3.686985 
72.818558 0.118804 
72.937775 3.93995 
73.029076 3.28463 
73.047493 0.154495 
73.065399 0.122032 
73.15918 0.099452 
73.441925 0.094733 
73.560982 0.090531 
73.653191 0.086386 
74.097046 4.61837 
74.534813 0.103434 
74.931419 0.089653 
75.055916 0.618434 
75.946091 1.060503 
75.961601 0.098113 
78.04763 0.098549 
79.02179 12.373068 
79.054771 14.85054 
80.050087 2.357711 
80.05809 0.11935 
80.948395 3.985678 
81.03405 0.574701 
81.070419 29.937382 
82.065659 1.280586 
82.0737 0.812254 
82.945412 1.705361 
83.049698 3.380746 
83.086052 6.346152 
83.246147 0.1168 
84.045013 0.130198 
84.081337 8.030547 
85.028992 0.302582 
85.065315 6.539076 
85.101715 3.072866 
85.49102 0.105979 
86.006592 0.114459 
86.047302 0.116271 
86.060593 0.113905 
86.096939 0.858222 
87.044563 6.305631 
88.021996 0.36423 
88.373337 0.10938 
88.95298 0.28722 
88.969002 1.345917 
88.978531 0.522206 
89.060181 11.111819 
89.450989 0.110944 
89.514015 0.111364 
89.831421 0.103619 
89.849091 0.143356 
89.940475 0.146018 
90.948143 8.401102 
91.054703 18.780998 
91.057877 9.263334 
92.057739 0.979773 
92.061028 0.13323 
92.558617 0.09985 
93.054726 0.533808 
93.067337 0.278751 
93.07032 14.309812 
93.240303 0.099953 
93.615906 0.127837 
93.956429 3.946048 
94.065559 3.648636 
94.073578 0.155898 
94.954323 0.373084 
95.049553 17.656992 
95.085945 18.574272 
95.234367 0.113982 
96.053085 0.352853 
96.081207 1.741602 
96.089218 0.273876 
96.151955 0.112781 
97.039948 0.321441 
97.065231 4.439648 
97.101624 1.677248 
98.060349 0.141839 
98.096916 1.471801 
98.121674 0.130544 
98.386017 0.11008 
98.546127 0.110292 
98.569855 0.095198 
98.975677 0.639696 
98.991966 0.116623 
100.076012 0.480085 
100.113007 0.1128 
100.179352 0.112583 
100.713196 0.105221 
101.060097 0.57849 
102.091705 9.300154 
102.925987 5.35697 
103.054543 2.078998 
103.25 0.098855 
103.954468 3.057932 
104.062477 0.43226 
104.96376 0.271701 
105.033829 1.220858 
105.045319 0.237628 
105.070175 16.969013 
105.073875 0.144423 
105.111671 0.112145 
105.63913 0.112262 
105.969574 0.137625 
106.065529 0.333287 
106.073555 0.429323 
106.89724 0.120688 
106.979149 0.161047 
107.049469 2.21234 
107.085846 11.538199 
107.950508 0.160618 
108.081108 2.267512 
108.958481 4.798913 
109.06514 2.339797 
109.101418 9.007539 
110.060638 0.12466 
110.096794 0.289108 
110.104927 0.250115 
110.769829 0.09422 
111.04438 0.126544 
111.08094 0.254303 
111.956734 0.238222 
112.029854 0.100877 
113.04071 0.356149 
113.213844 0.132424 
113.462135 0.114371 
114.09137 0.103857 
114.969162 0.111192 
115.054466 0.615486 
115.075302 0.121071 
116.053017 4.994883 
116.062241 0.12488 
116.963585 0.389103 
116.984856 9.682171 
117.070061 6.490267 
117.969978 3.948688 
117.982727 0.118199 
117.992485 0.648476 
118.065231 0.294999 
118.980278 0.137006 
119.0494 0.128908 
119.072937 0.096774 
119.085693 13.780253 
119.758102 0.104103 
120.044945 0.129443 
120.080986 1.183843 
120.088982 0.184315 
120.925591 0.512223 
120.936386 0.920395 
120.940659 0.479291 
121.064987 4.383673 
121.101334 5.946484 
121.324097 0.106936 
122.060905 0.129364 
122.096451 0.171917 
122.941055 5.276508 
122.973793 0.172406 
123.044464 0.258816 
123.080589 3.251347 
123.116989 2.042917 
124.100487 0.115547 
125.059875 0.896989 
125.961189 1.080009 
126.127739 0.151691 
126.447777 0.10034 
126.943634 0.593465 
126.984833 0.201839 
127.056091 0.60036 
128.062134 0.574826 
128.143463 3.33677 
128.415329 0.101061 
128.589035 0.117574 
128.963516 0.311606 
128.984558 0.553284 
129.069992 2.667768 
129.992401 0.537213 
130.979065 0.161688 
130.990311 4.611558 
131.000122 10.746204 
131.04924 4.314696 
131.085587 8.382639 
131.973862 0.115963 
131.985611 1.435149 
131.997986 0.174158 
132.007996 0.959581 
132.080811 0.767169 
132.093475 1.831002 
133.005737 0.415588 
133.06488 0.582459 
133.101181 8.763159 
134.096466 1.471219 
134.104507 0.231981 
134.325027 0.137759 
134.956161 5.139106 
134.973648 0.711585 
134.995834 8.281497 
135.08046 7.031977 
135.116806 1.29874 
135.353607 0.114991 
135.926331 1.380361 
136.112167 5.422069 
136.496628 0.108271 
136.934097 0.7756 
136.952789 0.130718 
137.011871 0.125698 
137.059799 0.133612 
137.096191 0.147671 
137.927902 7.061239 
138.127884 0.396674 
138.159821 0.100037 
138.935883 1.053361 
138.94635 0.167973 
138.951416 0.665011 
139.092377 0.092744 
139.156631 0.094392 
139.184692 0.12437 
140.05304 0.141225 
140.143387 3.057567 
140.929352 0.099548 
140.951416 1.272581 
140.984406 4.398508 
141.071121 0.580361 
142.077606 0.713736 
142.979263 0.392114 
143.000061 8.26277 
143.085526 3.206221 
144.079971 0.135828 
144.093292 1.910861 
144.994781 0.236399 
145.005356 0.17659 
145.015884 2.405171 
145.064621 0.324826 
145.101135 5.02455 
146.096039 0.20106 
146.97406 0.803582 
146.9953 0.755947 
147.080353 1.119817 
147.116714 11.210059 
148.119965 0.590287 
148.989334 0.697735 
149.010925 3.798218 
149.096237 0.394418 
149.942001 0.431262 
149.959747 0.981931 
150.950958 9.547982 
150.968933 0.784086 
151.020401 0.644825 
151.976181 0.141351 
152.871475 0.126657 
152.887375 0.441726 
152.951492 11.097614 
152.966782 4.756369 
152.989243 0.256448 
153.007156 0.619452 
153.020691 0.679618 
153.069031 0.101261 
153.690735 0.111285 
153.959167 34.482857 
153.992157 0.139637 
154.005951 1.67284 
154.9673 0.352881 
154.999939 1.433168 
155.085556 0.554603 
155.961243 0.194061 
156.94632 3.838362 
157.015869 3.799366 
157.101196 2.225945 
158.001053 0.728829 
158.072418 0.140126 
158.108917 1.196105 
159.01033 0.124887 
159.032166 0.126165 
159.080505 0.137169 
159.116837 9.34253 
159.980209 0.145543 
160.016678 3.99004 
160.112991 0.115406 
160.590836 0.123142 
161.010788 3.053782 
161.096008 2.188353 
161.188553 0.107481 
162.128235 0.126983 
162.962494 0.737266 
162.972092 0.578367 
163.005981 0.099951 
163.026627 0.368872 
163.055542 0.378931 
163.111725 0.50672 
163.957535 0.865753 
163.975327 0.630959 
164.00058 0.104624 
164.920486 1.611649 
164.965958 0.15586 
164.983566 0.123789 
164.999908 0.150178 
165.006805 0.204483 
165.036118 0.464779 
165.07106 0.864329 
165.961685 0.12082 
165.972809 0.37645 
167.036316 0.289776 
167.898346 0.293651 
167.915985 0.650552 
167.974625 0.206339 
168.961624 4.492138 
168.982819 0.256183 
169.015747 0.342917 
169.917679 0.814486 
170.96196 9.66102 
171.009506 0.110185 
171.031708 0.459922 
171.081055 0.118176 
171.116623 0.580669 
171.980316 1.434349 
172.016739 0.12124 
172.952423 0.372122 
172.989639 0.135522 
173.010468 0.127167 
173.096008 0.284717 
173.132584 4.345079 
173.996048 1.018881 
174.103058 0.126238 
174.136047 0.253688 
174.925705 0.147962 
174.989929 9.011901 
175.111633 0.435543 
176.547485 0.136152 
176.987732 3.274745 
177.071716 0.409445 
177.127426 7.818556 
177.97319 3.024221 
177.991226 0.219516 
178.130859 0.134981 
179.086853 1.844414 
180.887741 0.711716 
181.102631 0.218357 
182.037537 0.955556 
183.117859 0.127343 
183.962692 1.965075 
185.095963 0.177161 
185.949112 27.52524 
185.978226 0.647085 
188.965332 0.660076 
189.005646 4.888794 
189.990768 0.660115 
190.962463 0.183377 
190.981262 1.985423 
191.087402 0.247521 
191.143051 1.84325 
191.953064 0.416289 
191.979752 0.125317 
191.988861 1.635183 
192.006516 9.34464 
192.105164 0.127204 
192.99646 2.827644 
193.102875 0.77802 
194.037109 0.15985 
194.999146 0.32088 
195.116974 0.428962 
195.947372 0.762237 
196.052719 0.761203 
197.963135 2.353172 
197.978409 0.939541 
199.111862 0.13643 
199.964874 0.765521 
199.994125 0.690401 
201.127808 0.527477 
203.086548 0.107243 
203.142853 0.668047 
203.855591 0.119097 
203.951996 0.126351 
203.988617 0.894834 
204.006683 0.246434 
204.996536 0.622611 
205.103317 0.155811 
205.702316 0.127938 
205.968124 0.668474 
205.993942 0.192311 
206.004593 0.509982 
206.022171 0.150812 
206.975998 2.004428 
208.991455 4.041739 
210.101028 0.141999 
211.006775 1.131411 
211.978653 1.173701 
214.893845 0.151785 
215.086517 0.135137 
217.967941 10.274806 
218.004272 4.982442 
219.012283 0.273843 
219.174744 0.730161 
219.983932 1.231745 
220.019928 0.214378 
220.275604 0.184306 
220.278961 0.208899 
220.283127 0.181207 
220.293991 0.558598 
220.302643 0.543336 
220.326904 0.136439 
222.89856 12.486557 
223.961075 0.125522 
223.9785 4.405261 
224.986496 0.482563 
225.042725 3.826225 
225.127975 0.101501 
226.008682 0.412668 
226.043365 0.43348 
227.022522 1.385439 
227.039825 4.133566 
228.024887 0.113133 
228.039993 0.177105 
229.0009 0.28052 
229.018814 0.58477 
229.96785 0.610694 
230.110062 0.423242 
230.248398 0.123551 
230.404816 0.113084 
230.97287 1.673098 
231.015961 0.104329 
231.983673 21.850222 
232.019485 0.479138 
232.986954 0.525515 
233.979065 0.145478 
233.999146 0.344896 
235.149643 0.117427 
235.978729 3.89164 
236.096115 0.112488 
236.915543 0.145598 
236.996155 0.121256 
237.994034 7.833912 
240.909073 24.054111 
241.910355 0.364197 
243.012329 0.409226 
245.027802 0.204493 
245.104218 0.128115 
245.133987 0.30348 
246.910797 0.485836 
247.011337 0.144369 
247.043365 0.900667 
248.983017 5.716109 
249.993759 0.256565 
252.009506 1.783029 
252.949402 0.274958 
254.924622 0.298725 
255.896469 0.210158 
262.389069 0.098876 
264.909119 0.710571 
266.303955 0.10675 
266.999237 0.166994 
268.978546 0.695564 
268.996399 0.437037 
269.02597 0.206536 
269.416138 0.107444 
269.82077 2.677542 
270.9104 0.40584 
274.917145 0.120372 
275.565125 0.104075 
275.811066 0.322665 
276.818268 1.285747 
281.03125 0.351005 
281.911926 1.903699 
282.91983 1.295936 
284.807281 3.179573 
285.815277 6.781134 
286.823181 3.287962 
287.035278 8.827944 
287.830872 15.25871 
288.038666 0.282235 
288.83847 0.937979 
288.920868 1.654969 
290.947113 0.514286 
292.927216 0.7148 
293.82074 2.315676 
294.828186 6.106749 
299.041504 0.330544 
301.810211 4.905512 
301.848267 0.159154 
302.817963 15.276056 
303.824585 0.294524 
304.258606 0.096793 
305.045715 29.409473 
306.049591 2.496748 
306.931244 0.269702 
307.049988 0.132118 
307.134888 0.316883 
309.816895 0.187848 
310.823608 3.440207 
310.843201 0.651202 
311.072021 2.692561 
311.294098 1.366584 
311.830566 33.057552 
312.838623 94.397789 
313.839966 7.766201 
314.84198 0.724159 
317.82074 0.431286 
319.062256 0.416364 
319.835632 0.536179 
321.551788 0.131186 
322.159851 0.114739 
323.056458 0.866979 
325.847198 0.50453 
326.817993 21.868633 
326.85437 3.902678 
327.825714 17.882019 
328.833313 23.771235 
329.082306 0.134894 
329.841431 26.639143 
330.847992 5.475884 
331.480438 0.145235 
331.847992 0.255064 
333.588409 0.116276 
335.830566 14.09995 
336.838623 10.384766 
337.844147 0.163526 
340.354034 0.09832 
342.208191 0.136008 
342.831879 0.342287 
343.09848 0.134568 
343.857056 0.463327 
344.82843 99.757004 
345.830261 9.051646 
346.831573 0.422808 
347.854156 0.123525 
348.246918 0.121173 
352.850128 0.132282 
353.841156 64.443153 
354.844299 7.813164 
355.846375 0.669064 
361.108612 1.158656 
362.804108 0.100552 
367.857178 2.598657 
368.923553 0.146833 
369.836365 2.029664 
370.845856 0.117274 
371.851593 9.963619 
372.855438 0.110882 
380.41684 0.118387 
384.849976 0.095036 
387.846954 0.246686 
393.761322 0.121237 
406.972443 0.111217 
411.901855 0.115891 
430.73877 0.114829 
447.346222 3.217606 
448.348877 0.36937 
467.364197 0.134854 
470.272766 0.106993 
474.839844 0.114288 
492.617188 0.118155 
END IONS

