BEGIN IONS
PEPMASS=1219.88
CHARGE=1+
COMPOUNDNAME=CYCLOSPORINE
LIBRARYQUALITY=3
SMILES=N/A
INCHIKEY=PMATZTZNYRCHOR-KMSBSJHKSA-N
INCHI=InChI=1S/C62H111N11O12/c1-25-27-28-40(15)52(75)51-56(79)65-43(26-2)58(81)67(18)33-48(74)68(19)44(29-34(3)4)55(78)66-49(38(11)12)61(84)69(20)45(30-35(5)6)54(77)63-41(16)53(76)64-42(17)57(80)70(21)46(31-36(7)8)59(82)71(22)47(32-37(9)10)60(83)72(23)50(39(13)14)62(85)73(51)24/h25,27,34-47,49-52,75H,26,28-33H2,1-24H3,(H,63,77)(H,64,76)(H,65,79)(H,66,78)/b27-25+/t40-,41?,42?,43?,44?,45?,46?,47?,49?,50?,51?,52-/m1/s1
MSLEVEL=2
SOURCE_INSTRUMENT=N/A-ESI-QFT
FILENAME=library_mgf.mgf
SEQ=*..*
IONMODE=positive
ORGANISM=MONA
NAME=CYCLOSPORINE [M+NH4]+
PI=MoNA
DATACOLLECTOR=MoNA:VF-NPL-QEHF028198
PUBMED=N/A
SUBMITUSER=mwang87
TAGS=
SPECTRUMID=CCMSLIB00004721779
SCANS=28198
84.972023 0.03073 
86.029541 0.041662 
86.060013 0.063398 
86.096344 11.431331 
87.050453 0.04706 
90.188789 0.046921 
91.026993 0.029003 
91.94503 0.068803 
93.300865 0.059926 
93.993774 0.040368 
95.085472 0.027441 
95.485321 0.066828 
96.080727 0.086068 
97.416008 0.02832 
98.096367 0.277187 
98.482948 0.020098 
100.039215 26.846445 
100.075554 0.066757 
100.112 72.059669 
100.1157 0.743241 
100.761482 0.0308 
100.905807 0.043849 
101.04245 0.249114 
101.115326 3.150879 
103.086456 0.06547 
104.555473 0.066515 
107.085426 3.611944 
108.890984 0.066647 
109.088425 0.316338 
109.101067 0.848053 
112.111916 0.066582 
112.723564 0.050259 
113.885597 0.068565 
114.091278 26.113876 
114.095245 0.148108 
114.949966 0.064991 
115.094566 0.882449 
115.454216 0.072681 
115.965515 0.063872 
116.135422 0.035318 
117.063583 0.065087 
120.553497 0.023552 
120.759216 0.044379 
123.442261 0.024385 
124.300804 0.059132 
125.096008 4.101014 
126.05484 0.472221 
126.127396 0.350811 
127.086395 1.521281 
127.941978 0.084546 
127.952324 0.042865 
128.106842 31.067011 
128.775146 0.02383 
129.019806 0.033132 
129.110077 1.241064 
129.263123 0.041324 
132.846939 0.045409 
133.902008 0.066806 
134.684128 0.037584 
134.699066 0.028751 
135.080124 0.928896 
135.440979 0.06072 
136.111938 3.408027 
136.402328 0.040461 
136.475967 0.040979 
136.950897 0.079372 
138.054993 0.521475 
138.127563 7.294333 
139.130829 0.05252 
140.070496 1.086746 
142.086151 31.905123 
142.226883 0.030314 
142.505066 0.035005 
143.08139 1.072735 
143.089401 1.559035 
145.744141 0.040556 
145.794312 0.022468 
146.11731 0.330959 
148.037094 0.027366 
148.292755 0.03406 
149.174026 0.027482 
149.72998 0.032702 
151.646118 0.020213 
152.070526 0.480365 
153.102036 4.158153 
153.315079 0.041591 
154.085983 1.278655 
155.081284 0.037274 
155.154297 0.227526 
156.029358 0.02255 
156.101685 46.548508 
156.138077 51.613056 
156.758194 0.021011 
157.096924 5.94999 
157.105026 3.050417 
157.141342 3.474968 
158.081085 0.077392 
161.978088 0.027359 
162.264954 0.034334 
164.557571 0.04948 
164.805252 0.036415 
165.39595 0.045 
166.122391 38.665272 
167.081573 0.024332 
167.093933 0.433745 
167.118515 0.116909 
167.125809 3.151516 
167.454651 0.065336 
168.101746 6.713309 
168.138245 0.249152 
169.13327 0.44881 
170.117584 0.516565 
171.098633 0.053814 
171.148956 39.601765 
171.157272 0.810545 
172.15242 2.804622 
172.600952 0.057045 
174.549789 0.062076 
181.131424 0.02276 
182.11731 11.105489 
183.120956 0.35179 
183.149094 1.519395 
183.830093 0.060431 
184.123795 0.041215 
184.132965 17.168341 
185.091675 1.064034 
185.12822 2.022039 
185.13652 0.997686 
193.133392 0.135749 
194.11734 26.853687 
195.120834 2.037462 
195.185165 0.327254 
199.107635 3.214356 
199.143906 94.542404 
199.179703 0.177619 
200.1474 7.642276 
204.267761 0.072668 
209.164978 0.249358 
210.148636 41.894287 
211.152054 3.649028 
212.127884 16.435349 
213.122421 4.288356 
213.132446 0.277708 
213.159149 0.034046 
214.117813 0.038851 
217.15451 0.574959 
217.24234 0.068002 
218.540878 0.046557 
219.714645 0.024415 
220.13324 0.05879 
221.129547 0.055683 
221.62207 0.051378 
222.181488 0.030917 
223.180344 7.971524 
224.164261 100.0 
225.167862 10.872239 
226.118286 1.34796 
226.180374 0.244343 
227.138702 2.714248 
227.175049 6.055069 
228.134033 3.227123 
228.178406 0.049501 
236.47081 0.037603 
237.159363 0.209138 
238.16391 0.050537 
239.138336 0.065656 
239.175766 0.035433 
239.307404 0.048531 
241.190781 18.454773 
242.194305 1.519712 
245.63913 0.05896 
247.209 0.039021 
251.174988 15.275555 
251.20961 0.046326 
252.178589 1.089044 
252.206497 2.117025 
253.154373 2.837081 
254.399307 0.062234 
254.919113 0.021782 
255.206329 2.298258 
256.164764 0.137981 
257.287109 0.062025 
260.112885 0.050591 
261.819824 0.036135 
264.530304 0.075984 
265.226959 1.1904 
265.65274 0.065378 
266.676239 0.049053 
269.185547 17.714426 
269.221558 0.081889 
270.18042 23.033516 
270.216766 0.595464 
271.184082 2.402377 
271.40921 0.035732 
279.1698 2.136542 
279.838684 0.035019 
283.201874 0.076415 
283.237518 0.153882 
284.196838 4.479907 
284.338379 0.048231 
285.199615 0.039196 
291.169891 0.398978 
293.221649 0.034942 
294.500977 0.067872 
298.212006 58.037312 
299.215637 7.895728 
301.222534 0.058499 
301.744019 0.069805 
304.165039 0.207635 
304.18399 0.034224 
307.201355 0.264422 
309.179779 0.044226 
310.175415 0.102617 
312.227448 2.530912 
313.232483 0.058555 
321.883118 0.066213 
322.211853 18.770111 
323.232422 35.602142 
324.236145 5.707925 
325.346497 0.061586 
325.885986 0.023225 
326.243134 6.927134 
327.245758 0.408363 
331.698517 0.044093 
335.598999 0.030557 
338.70752 0.028493 
340.222717 9.27307 
340.258514 0.314838 
341.217773 6.08555 
342.221039 0.307758 
350.206726 3.730361 
351.206879 0.086025 
353.21759 0.663173 
354.274384 11.954185 
355.233246 2.024457 
355.27771 1.691135 
358.226776 0.034887 
364.258636 1.320841 
366.120026 0.048307 
366.238312 1.308557 
366.275299 0.081514 
366.496338 0.076436 
366.542542 0.080559 
368.21759 0.557441 
368.289917 0.887827 
369.248779 1.924458 
373.515808 0.067781 
378.274506 0.787343 
383.264679 2.701437 
384.268311 0.040828 
397.280304 15.559913 
397.311798 0.149838 
398.283478 2.608361 
408.869934 0.026096 
408.956451 0.055436 
410.270874 0.111355 
411.295197 0.977145 
416.271454 0.082099 
421.317719 0.090092 
425.311646 43.649925 
426.112823 0.066945 
426.314667 8.758757 
427.316559 0.034129 
433.277527 0.026921 
435.295929 1.919836 
439.326874 0.354681 
443.321228 0.041941 
445.789673 0.150187 
449.311493 5.689848 
450.314362 0.813141 
451.79007 0.204204 
453.306763 0.137024 
454.30246 0.629987 
459.423462 0.064498 
460.286804 0.038689 
463.362854 0.041298 
467.321716 0.932831 
468.318298 2.509961 
469.320831 0.080245 
477.305878 1.053156 
478.306763 0.072233 
478.862244 0.074114 
481.310303 0.137252 
482.33017 0.05493 
486.81134 0.092955 
487.310974 0.050038 
488.316467 2.943626 
496.348297 2.262528 
497.353241 0.062185 
501.306458 0.774035 
502.33374 0.118172 
503.282501 0.067873 
509.406219 0.065567 
510.363892 0.783967 
515.340271 0.490118 
520.352051 0.034939 
520.477478 0.053908 
522.329651 1.231993 
524.326111 0.02987 
524.379272 3.276 
525.381775 0.45618 
528.584045 0.07649 
533.963135 0.046382 
534.328308 0.039288 
535.35553 0.224751 
538.39325 0.230217 
539.392029 0.407918 
541.332397 0.029821 
541.856079 0.109844 
542.347839 0.025417 
548.055481 0.033371 
548.379333 2.587185 
549.398438 1.939471 
550.401978 0.242042 
550.858643 7.549991 
552.410522 0.669876 
553.412292 0.066731 
555.850952 0.826966 
562.840637 0.02754 
564.856262 38.116398 
565.337158 0.280334 
566.389587 1.862969 
567.385742 3.691761 
568.389648 0.406533 
573.443176 0.034039 
576.373474 1.203133 
577.376221 0.091888 
581.401611 0.254601 
582.396545 0.08583 
597.897644 1.036738 
606.902405 0.234611 
611.89447 9.975576 
620.899902 7.442298 
630.528625 0.03417 
636.372681 0.142 
637.4646 0.147952 
639.93512 0.054307 
647.484619 0.547466 
657.722778 0.03057 
664.402283 0.07042 
675.478088 3.727783 
676.482422 0.787617 
692.435364 0.316583 
694.484985 0.706939 
708.86499 0.114488 
709.078308 0.180565 
709.114258 0.125096 
709.153381 0.247443 
721.426147 0.075101 
763.468567 0.058892 
766.140259 0.076746 
787.761841 0.08102 
791.877441 0.032725 
836.217773 0.079123 
843.756348 0.034192 
876.901611 0.070434 
899.450134 0.049243 
916.660217 0.041226 
919.561462 0.284926 
934.22467 0.078907 
938.351929 0.083162 
944.642822 0.153763 
953.067993 0.080407 
968.304565 0.056412 
1039.302979 0.034941 
1044.492432 0.079247 
1049.45813 0.037635 
1051.049683 0.070112 
1071.74646 0.205635 
1072.430664 0.031371 
1089.316528 0.071378 
1106.713135 0.038212 
1140.949829 0.082961 
1156.829224 0.092715 
1184.829468 0.070303 
1189.096191 0.035982 
1190.297485 0.051696 
1209.901611 0.029873 
1217.822998 0.143443 
1218.827637 0.430753 
1219.81604 0.109544 
1220.830811 0.037579 
END IONS

