BEGIN IONS
PEPMASS=465.349
CHARGE=1+
COMPOUNDNAME=3-Epilupeol
LIBRARYQUALITY=3
SMILES=N/A
INCHIKEY=MQYXUWHLBZFQQO-ISZJTHHZSA-N
INCHI=InChI=1S/C30H50O/c1-19(2)20-11-14-27(5)17-18-29(7)21(25(20)27)9-10-23-28(6)15-13-24(31)26(3,4)22(28)12-16-30(23,29)8/h20-25,31H,1,9-18H2,2-8H3/t20-,21+,22-,23+,24+,25+,27+,28-,29+,30+/m0/s1
MSLEVEL=2
SOURCE_INSTRUMENT=N/A-ESI-QFT
FILENAME=library_mgf.mgf
SEQ=*..*
IONMODE=positive
ORGANISM=MONA
NAME=3-Epilupeol [M+K]+
PI=MoNA
DATACOLLECTOR=MoNA:VF-NPL-QEHF005654
PUBMED=N/A
SUBMITUSER=mwang87
TAGS=
SPECTRUMID=CCMSLIB00004696717
SCANS=5654
50.219448 0.028025 
50.422867 0.041799 
50.614037 0.036748 
51.01453 0.03542 
51.073605 0.043377 
51.113251 0.036226 
51.437092 0.032538 
51.576916 0.036981 
52.078049 0.031928 
52.860191 0.03164 
52.871494 0.035374 
52.9277 0.030861 
52.944252 0.032985 
53.002968 0.135145 
53.168358 0.03263 
53.204826 0.038712 
55.018593 0.19804 
55.054977 3.621538 
55.648399 0.032562 
56.050213 0.560327 
56.27412 0.034646 
56.544903 0.043473 
56.965511 1.002349 
57.018654 0.032143 
57.034225 1.032391 
57.070633 15.999882 
57.348877 0.031508 
57.480717 0.041525 
57.70681 0.035828 
58.042057 0.034601 
58.065853 0.317542 
58.073929 0.301137 
58.389751 0.032228 
58.995266 0.034079 
59.049854 0.789108 
59.061104 0.410541 
59.678604 0.038737 
59.990982 0.816845 
60.04512 0.393499 
60.133545 0.031399 
60.973694 0.032867 
61.01136 2.747677 
61.028957 0.05153 
61.195892 0.032089 
61.313828 0.035755 
61.63623 0.034932 
61.770473 0.032427 
61.9492 0.035438 
62.019154 0.309104 
62.842762 0.035142 
62.982479 0.120431 
63.014751 0.033363 
63.335789 0.033508 
63.998329 0.086432 
64.079735 0.031047 
64.967422 0.037026 
65.358101 0.037003 
65.412727 0.035481 
65.455093 0.032403 
65.481781 0.033226 
65.647926 0.03142 
65.762627 0.031463 
65.775284 0.030494 
65.884895 0.03871 
66.046829 0.033641 
66.145187 0.037431 
66.178505 0.039727 
66.262016 0.029135 
67.054924 5.157718 
67.236572 0.036816 
67.258591 0.030432 
67.406975 0.034705 
68.86026 0.035521 
69.034103 0.707538 
69.07058 4.410801 
69.072578 0.048454 
69.081169 0.037485 
69.597389 0.034379 
69.752403 0.039052 
70.065765 0.717842 
70.900505 0.034324 
70.9851 0.031648 
71.049767 1.404305 
71.08622 4.986323 
72.044968 0.573652 
72.081429 0.361052 
73.02903 2.654795 
73.047394 0.274869 
73.06543 0.201079 
73.336372 0.030559 
73.661499 0.034071 
73.717888 0.038137 
73.783089 0.038147 
74.097069 2.002178 
74.266312 0.031312 
74.31781 0.033049 
74.322777 0.038131 
76.076271 0.287827 
76.489067 0.033504 
76.806129 0.038761 
77.186775 0.04743 
77.300003 0.033165 
79.02179 5.623592 
79.054802 1.78787 
79.078537 0.037137 
80.054962 0.100138 
80.77478 0.032301 
80.948402 1.11567 
81.07048 7.398864 
81.076469 0.053823 
81.643745 0.044447 
81.776787 0.032001 
82.073807 0.146472 
82.793465 0.035377 
82.945435 0.034623 
83.010788 0.047649 
83.049644 1.143634 
83.08609 3.021193 
83.232407 0.034704 
83.5308 0.037648 
83.936958 0.03749 
84.045059 0.045351 
84.0812 0.092736 
84.52507 0.037973 
85.028908 0.88257 
85.065231 1.03122 
85.101738 3.344329 
85.250191 0.038911 
86.060577 0.151177 
86.096916 0.505812 
86.900543 0.041014 
87.044563 2.920324 
87.557976 0.036087 
88.022026 0.340108 
88.076103 0.107193 
88.079292 0.032307 
88.783463 0.036484 
89.060211 6.138976 
90.307892 0.034626 
91.054703 1.619834 
91.057808 5.082709 
91.186707 0.037945 
91.601524 0.036873 
91.956703 0.038337 
92.057465 0.047946 
92.061028 0.03694 
93.037201 1.180801 
93.054543 0.123824 
93.070335 3.883347 
93.225334 0.035492 
94.068535 0.032354 
94.073853 0.044131 
94.163551 0.033559 
94.275459 0.040778 
95.04953 0.852427 
95.085938 9.319225 
95.289162 0.036489 
95.935257 0.031179 
96.04422 0.03717 
96.081245 0.150316 
96.08931 0.202585 
96.187859 0.039103 
96.528458 0.036945 
96.922142 0.051257 
96.995651 0.046781 
97.065186 1.243105 
97.101585 1.529932 
98.096809 2.62 
98.557396 0.036535 
98.975769 0.673898 
99.044502 0.521403 
99.080849 0.306256 
99.10247 0.03472 
99.248077 0.03669 
99.897202 0.037179 
100.076012 1.253015 
100.112274 0.040672 
100.675522 0.039431 
101.003525 0.223116 
101.060097 0.520628 
101.278946 0.036579 
101.56691 0.037096 
101.736595 0.045633 
102.091591 0.038994 
102.690636 0.035139 
103.039124 0.037481 
104.591125 0.032317 
104.933662 0.034272 
105.066811 0.034039 
105.070206 3.283582 
105.364708 0.036613 
106.086632 0.298076 
106.929848 0.046425 
107.0494 0.281109 
107.070587 0.085678 
107.085831 5.354663 
107.491905 0.036038 
107.918404 0.068544 
108.089211 0.054252 
109.06498 0.856509 
109.101456 7.627192 
110.105026 0.096342 
111.041695 0.311271 
111.080658 0.954704 
111.117081 0.215095 
111.719193 0.029981 
112.486603 0.043081 
112.936897 0.03362 
113.059929 0.131841 
114.091515 0.035209 
116.053131 2.782712 
116.107132 0.358598 
116.986061 1.493845 
117.070038 0.260547 
117.091019 0.048372 
117.781105 0.034884 
118.086479 0.037038 
118.715858 0.036188 
119.049347 0.166449 
119.085701 4.23504 
119.692085 0.03213 
120.080902 0.784897 
120.089119 0.137039 
121.028481 0.18688 
121.064896 1.150033 
121.101395 5.22901 
122.104591 0.11222 
123.04393 0.053434 
123.080521 1.087955 
123.117012 2.643853 
125.059708 0.461318 
125.096153 0.539217 
126.080414 0.034411 
126.09137 0.097132 
127.036644 0.385514 
128.143387 0.920897 
129.070282 0.080969 
130.159103 0.243163 
130.75325 0.035802 
131.085587 0.863592 
131.896805 0.036736 
133.064957 0.192397 
133.085815 0.553436 
133.101227 3.830285 
134.104767 0.044199 
134.936981 0.038882 
134.955856 0.068995 
134.978668 0.204071 
134.996429 2.534625 
135.044006 0.619199 
135.080444 1.742674 
135.116852 4.425203 
135.554733 0.031356 
136.047012 0.040027 
136.076492 0.038535 
136.112595 0.042112 
136.120102 0.038535 
136.476593 0.039077 
137.059479 0.341056 
137.096069 1.402153 
137.132416 1.413122 
137.138275 0.037183 
137.210205 0.032833 
137.970993 0.041233 
138.091385 0.042826 
138.110443 0.03535 
138.127945 0.050436 
139.050079 0.035876 
139.075424 0.290691 
139.111572 0.135538 
140.143295 0.065923 
140.959167 1.492026 
141.034348 0.031963 
141.278229 0.036616 
141.577286 0.031433 
141.963547 0.042947 
142.159103 0.046032 
142.998505 0.032899 
143.085419 0.941917 
145.064514 0.05598 
145.101212 2.17822 
145.943909 0.041263 
147.0439 0.130384 
147.080353 0.602106 
147.11676 3.078873 
148.025009 0.224421 
148.45314 0.032234 
148.987427 0.048399 
149.012222 0.269412 
149.044403 0.039004 
149.060013 0.081064 
149.096039 1.124698 
149.132416 1.628786 
150.548019 0.037505 
150.774948 0.040465 
151.038681 0.037253 
151.075226 0.166274 
151.111649 0.377092 
151.631256 0.033357 
152.951523 0.082226 
152.96698 0.043657 
152.989182 0.802936 
153.007004 0.307645 
153.019867 0.042346 
153.070435 0.042748 
153.090958 0.163624 
153.127167 0.108622 
153.959351 0.039673 
154.076889 0.038943 
154.122543 1.807477 
154.15918 0.039587 
154.279205 0.036624 
154.968262 0.089865 
155.068283 0.036441 
155.106689 0.034494 
155.125748 0.064405 
155.562668 0.039343 
156.13826 3.386387 
156.373016 0.040338 
156.932495 0.037759 
157.101044 0.655129 
157.933609 0.034502 
159.047028 0.052533 
159.080383 0.191721 
159.116852 2.363486 
159.344986 0.03699 
161.096054 0.800041 
161.132462 1.66866 
162.043869 0.083927 
162.135559 0.047536 
163.027588 0.11153 
163.07518 0.134179 
163.111694 0.609677 
163.148041 1.059241 
164.92038 0.892262 
165.054489 0.916031 
165.090912 0.422277 
165.127136 0.065053 
165.995499 0.038874 
166.094009 0.042031 
166.128647 0.035249 
167.055435 1.050667 
167.105469 0.04588 
168.054962 0.038595 
168.961212 0.042685 
169.051865 0.054777 
169.101028 0.093533 
170.955246 0.18102 
170.962875 0.376482 
171.062912 0.201233 
171.080322 1.274818 
171.11676 0.751465 
171.130005 0.138662 
171.137924 15.337861 
171.146149 0.064401 
172.084137 0.052357 
172.114853 0.044318 
172.141098 1.159663 
172.951843 0.103408 
173.096176 0.422602 
173.132462 1.484794 
173.749359 0.033142 
174.135956 0.038947 
174.934814 0.09406 
174.972458 0.207693 
175.039001 10.522986 
175.075241 0.051184 
175.111542 0.880164 
175.148087 1.760317 
176.042297 0.484439 
176.114761 0.043652 
176.988785 0.082557 
177.058319 0.088467 
177.091202 0.041762 
177.127243 0.313418 
177.163757 0.41436 
177.492584 0.045286 
178.060379 0.03509 
178.637726 0.041704 
179.106613 0.224 
179.228134 0.036424 
180.894363 0.204378 
181.064682 0.330868 
181.186096 0.035575 
182.154083 0.162252 
183.080811 0.042131 
183.116714 0.311358 
185.059738 0.244061 
185.096268 0.194868 
185.132385 0.994698 
186.861771 0.038502 
187.038696 0.092324 
187.101166 0.04071 
187.111694 0.458435 
187.148071 1.62258 
188.965408 0.162515 
188.974136 0.726019 
189.005295 0.037488 
189.054504 0.282628 
189.090988 0.083826 
189.127457 0.419068 
189.163666 3.185576 
190.962616 0.087489 
190.969131 0.034465 
191.106644 0.070935 
191.142883 0.089465 
191.17926 0.639806 
192.102432 0.036355 
192.556595 0.041814 
192.945465 1.462811 
193.773209 0.035526 
194.924683 0.581379 
194.999786 1.584505 
195.116501 0.190814 
196.868622 0.049073 
197.132462 0.431476 
197.974243 1.731317 
199.038879 0.489447 
199.075348 2.087723 
199.094284 0.045665 
199.111786 0.300389 
199.148041 0.728833 
199.480453 0.041908 
201.12738 0.46449 
201.163574 0.338179 
203.022324 0.150094 
203.033752 0.368072 
203.070496 0.050736 
203.1064 0.172073 
203.143204 0.440892 
203.179428 0.599066 
205.006851 0.152692 
205.122269 0.052981 
205.158478 0.147634 
206.004044 0.142879 
206.284424 0.035443 
207.05426 0.154881 
207.136322 0.047447 
209.060989 0.0443 
209.132462 0.044448 
209.924881 0.08768 
210.185272 0.692477 
211.127625 0.034946 
211.147842 0.120874 
211.439194 0.036557 
212.084412 0.038315 
212.151443 0.045649 
212.935226 0.373123 
213.010071 0.418301 
213.127563 0.281079 
213.164154 0.272191 
213.481949 2.218593 
213.495575 2.245306 
215.070038 0.481233 
215.088913 0.377746 
215.106628 0.082723 
215.142929 0.503715 
215.17926 0.037201 
215.56514 0.036577 
215.984909 0.280969 
217.085815 4.933238 
217.121658 0.150665 
217.158905 0.343794 
218.089142 0.16062 
218.538635 0.035847 
219.174286 0.315853 
220.01973 0.101886 
220.606125 0.033932 
221.131775 0.04012 
222.898453 0.220294 
223.063736 0.288109 
223.147812 0.039673 
225.04277 7.936804 
225.127167 0.047706 
225.164078 0.089479 
226.042694 4.462573 
227.022125 0.484832 
227.040024 2.301438 
227.070145 35.032928 
227.142517 0.201554 
227.17894 0.086155 
227.935287 0.168164 
228.022949 0.148581 
228.073502 4.423855 
229.07489 0.495714 
229.12175 0.078416 
229.158417 0.168632 
229.194962 0.048854 
229.896133 0.16451 
230.966888 0.137142 
231.137939 0.311563 
231.983017 0.162013 
232.963791 0.123555 
233.015289 0.04097 
233.153473 0.13678 
235.060989 0.110843 
237.99411 0.509461 
238.216476 0.06018 
239.17952 0.046972 
240.234863 0.043524 
240.909058 0.912424 
241.121841 0.054215 
241.157959 0.059894 
242.283463 0.041485 
242.404739 0.033473 
243.138092 0.03973 
245.080627 40.784042 
245.153595 0.041517 
246.036026 0.041361 
246.084015 5.78047 
246.909836 0.048478 
247.085831 0.494765 
247.906326 0.157355 
248.976685 0.043097 
251.025589 3.395802 
251.177597 0.058563 
252.009506 0.475893 
252.064972 0.042843 
252.949844 0.250948 
253.194489 0.048076 
253.861115 0.039957 
254.999084 0.035281 
255.137344 0.032677 
257.154449 0.053969 
259.115479 0.281286 
260.770935 0.036553 
260.893433 0.036356 
260.996979 0.038416 
264.908966 0.576466 
265.157837 0.055242 
265.939331 0.791248 
266.835785 0.047195 
267.001617 0.040939 
267.269501 0.04071 
268.978943 0.046711 
268.998871 0.04033 
269.036102 0.851158 
269.304779 0.038737 
269.944946 0.088596 
270.031708 0.182712 
270.315643 0.070158 
270.55365 0.058582 
272.954529 0.037279 
272.97583 0.04913 
273.007721 0.121578 
273.039032 0.042815 
273.094177 0.125674 
274.975159 0.294949 
275.109467 0.049984 
275.152588 0.365941 
278.782501 0.034865 
281.911743 0.566313 
282.919403 0.59033 
283.030029 0.95912 
283.049683 0.047817 
283.205475 0.049638 
283.330719 0.039176 
283.847382 1.445595 
283.949493 0.09676 
284.030548 0.972652 
284.153198 0.346383 
284.845886 0.77237 
284.941162 0.055981 
285.009735 0.190883 
285.027405 0.371306 
285.84433 0.041909 
286.009186 0.191131 
286.941162 0.214192 
290.947571 0.238919 
291.137085 0.056213 
292.985779 0.168657 
293.072449 0.044768 
294.959167 0.16589 
296.937408 0.03264 
297.185089 0.046715 
298.345276 0.055296 
299.061523 3.383677 
299.200012 0.054419 
300.061707 3.748763 
301.058777 2.063707 
301.857941 1.406239 
302.059937 0.044194 
302.162781 0.118373 
302.856018 0.90151 
302.936981 0.039751 
303.854614 0.136443 
304.640106 0.038112 
304.894226 0.037293 
304.951019 0.049965 
306.919434 1.206511 
306.984985 0.042064 
307.134338 0.08388 
309.095642 0.040037 
309.173737 0.092463 
310.843079 0.104477 
311.162933 0.040741 
311.496124 0.038688 
314.70874 0.039511 
315.825226 0.046233 
317.120789 0.096125 
324.92981 0.093082 
327.183563 0.355621 
327.220459 0.161109 
328.18161 0.18971 
328.984131 0.048123 
329.003571 0.135384 
329.176483 0.092503 
329.473206 0.041029 
332.940582 0.039733 
332.973755 0.059905 
333.835724 1.144239 
334.843018 4.912615 
336.567322 0.03633 
343.268066 0.052221 
343.850708 0.836449 
344.848297 0.204841 
345.194183 0.151825 
345.230835 0.185528 
345.278748 0.263986 
346.191132 0.235327 
346.924988 0.28089 
349.183105 0.066157 
349.850555 0.104665 
350.984802 0.504305 
351.846039 8.012038 
352.852722 1.298413 
353.038452 0.081805 
353.840363 0.093098 
357.12265 0.042602 
358.843231 0.232069 
360.839447 0.047586 
361.146423 0.161935 
361.27951 1.899168 
362.217163 0.032543 
362.281708 2.133567 
362.877869 0.05082 
363.277466 0.966287 
367.840515 0.053589 
368.84848 0.409498 
368.873444 0.037676 
368.923981 0.120921 
369.856262 1.186669 
370.903717 0.105779 
387.930939 0.032479 
389.179749 0.07129 
391.144409 0.082634 
392.848816 2.817324 
395.650757 0.037725 
404.950775 0.206156 
407.188995 0.219142 
410.859589 0.632474 
411.723267 0.036011 
419.224731 1.03835 
423.280762 0.093636 
428.372589 0.03841 
429.337952 0.038309 
431.292603 0.051594 
435.219452 2.553231 
447.288666 0.185439 
447.346222 0.566263 
449.200439 0.056599 
449.30426 0.907863 
463.315613 0.823454 
463.353821 0.360321 
463.548157 0.035015 
464.217834 0.040144 
464.31723 1.878751 
464.356659 0.24317 
464.388702 0.05246 
465.194427 0.717041 
465.231354 11.637468 
465.300751 2.993096 
465.333221 100.0 
466.234375 2.119719 
466.302826 0.827279 
466.336334 30.11116 
466.53421 4.241721 
467.107697 0.056017 
467.245361 4.485372 
467.277649 0.453249 
467.31131 3.064834 
467.34552 3.371754 
467.53772 0.192962 
473.082062 0.040175 
END IONS

