BEGIN IONS
PEPMASS=374.12
CHARGE=1+
COMPOUNDNAME=bisdethiobis(methylthio)gliotoxin
LIBRARYQUALITY=3
SMILES=N/A
INCHIKEY=OVBAGMZLGLXSBN-UOVKNHIHSA-N
INCHI=InChI=1S/C15H20N2O4S2/c1-16-12(20)14(22-2)7-9-5-4-6-10(19)11(9)17(14)13(21)15(16,8-18)23-3/h4-6,10-11,18-19H,7-8H2,1-3H3/t10-,11-,14+,15+/m0/s1
MSLEVEL=2
SOURCE_INSTRUMENT=N/A-ESI-QFT
FILENAME=library_mgf.mgf
SEQ=*..*
IONMODE=positive
ORGANISM=MONA
NAME=bisdethiobis(methylthio)gliotoxin [M+NH4]+
PI=MoNA
DATACOLLECTOR=MoNA:VF-NPL-QEHF024558
PUBMED=N/A
SUBMITUSER=mwang87
TAGS=
SPECTRUMID=CCMSLIB00004715621
SCANS=24558
50.193161 0.060873 
51.023418 0.08015 
51.648621 0.086219 
51.940334 4.647644 
52.041409 0.071552 
52.434132 0.067378 
52.940441 0.371876 
53.002541 1.522084 
53.038944 6.734862 
53.208492 0.066267 
53.756107 0.068411 
54.034164 2.866114 
54.222527 0.069141 
54.937805 0.789648 
55.013088 0.077258 
55.018192 7.630224 
55.041962 3.162758 
55.054577 18.469021 
55.91851 0.056206 
55.934708 5.549778 
56.049812 23.049112 
56.057877 0.294587 
56.729633 0.076041 
56.942539 0.171156 
56.965096 10.03961 
57.033813 4.376071 
57.053165 0.285692 
57.057606 0.173078 
57.070202 11.263357 
57.758789 0.061072 
57.935097 5.72686 
58.029041 1.931432 
58.065441 11.012637 
58.073509 0.421841 
58.752316 0.068514 
58.995289 0.437503 
59.036732 0.054664 
59.04945 4.813117 
59.060661 0.632109 
59.06876 0.093301 
59.073242 1.136179 
59.408474 0.069618 
59.773972 0.064179 
59.930496 5.099649 
60.044655 2.215614 
60.055901 0.867133 
60.081028 1.672935 
60.155167 0.069295 
60.491146 0.070201 
60.558208 0.072093 
60.865532 0.057699 
61.010918 30.637655 
61.012772 0.036286 
61.028641 2.667179 
61.928013 1.869073 
62.014202 0.588594 
62.018715 4.169105 
62.143848 0.071615 
62.989948 0.197464 
63.006641 2.832056 
63.026443 0.07804 
63.272568 0.065896 
63.540096 0.06705 
63.604618 0.061083 
63.685104 0.06817 
63.927616 0.573515 
63.99791 0.306826 
64.282471 0.05973 
64.497498 0.054241 
65.038765 7.857064 
65.220192 0.055422 
65.594376 0.062453 
66.033966 0.296608 
66.04213 0.079453 
66.046585 0.251356 
66.253143 0.06786 
67.017921 0.23206 
67.041817 0.96574 
67.05442 14.875254 
67.177376 0.060032 
67.934982 0.15791 
68.013184 0.577303 
68.025795 0.171033 
68.049622 9.151384 
68.057716 0.306132 
68.569695 0.08018 
68.94281 0.453655 
68.997238 0.615413 
69.033623 13.242405 
69.044792 0.556123 
69.052887 0.151487 
69.057442 0.169935 
69.070015 12.70632 
69.960922 0.169867 
70.028839 3.404919 
70.03688 0.329733 
70.065254 67.284264 
70.073364 0.161607 
70.941956 0.071168 
70.957977 3.525106 
70.959839 0.07888 
71.012878 1.244071 
71.036682 6.486706 
71.049263 7.028498 
71.060432 0.448963 
71.068573 2.471195 
71.073189 0.157346 
71.085625 4.691679 
71.154762 0.062698 
71.929352 0.514994 
71.940491 0.067431 
71.989349 0.058796 
72.044495 13.439027 
72.080872 8.082811 
72.93721 6.275036 
73.01075 0.990388 
73.028465 4.327491 
73.046867 4.56224 
73.052277 0.103418 
73.064842 1.830252 
73.084267 0.069499 
73.098015 0.063517 
74.005959 1.972359 
74.023689 0.302593 
74.046333 0.082736 
74.060112 4.054876 
74.096535 0.496974 
74.667969 0.069864 
74.82032 0.066515 
74.97541 0.096247 
74.989998 1.42576 
75.026001 0.099089 
75.044037 1.393129 
75.945511 0.15044 
77.00547 0.099269 
77.038681 0.620307 
77.933624 0.062668 
78.033844 0.202369 
78.046471 0.636806 
78.967087 0.427127 
79.01873 0.15335 
79.021271 5.915599 
79.054298 18.470835 
80.024155 0.069071 
80.049561 12.81973 
80.057602 0.582969 
80.589493 0.068038 
81.00032 0.515628 
81.033577 21.129156 
81.0448 8.390152 
81.052856 0.152222 
81.057426 0.886679 
81.069962 12.579578 
82.028793 2.489091 
82.036842 0.537197 
82.041412 1.109643 
82.048241 0.087573 
82.052635 4.911227 
82.065216 13.402911 
82.073219 0.434693 
83.012802 0.558097 
83.049232 19.963306 
83.060394 3.653248 
83.068657 0.265296 
83.072952 0.95067 
83.085571 3.346867 
84.044472 9.090052 
84.052574 0.703314 
84.057144 2.905034 
84.080864 26.007389 
84.937469 0.072367 
85.010696 0.427823 
85.028488 6.965003 
85.039711 3.122569 
85.042259 0.068204 
85.047997 0.080256 
85.064919 2.67014 
85.076088 0.892829 
85.084206 1.059665 
85.101242 0.72502 
85.353241 0.084516 
86.06012 5.847781 
86.062775 0.10404 
86.096451 6.674104 
86.990044 0.174419 
87.013832 0.100093 
87.026421 0.679789 
87.044174 8.695809 
87.069962 0.065797 
87.080139 0.07028 
87.867584 0.069627 
87.906723 0.1018 
88.021667 5.903513 
88.039391 0.466239 
88.047432 0.074354 
88.075798 7.923988 
88.543106 0.077661 
88.952316 0.329254 
88.968498 2.956496 
89.005676 0.523803 
89.038651 2.181116 
89.059746 1.883866 
89.716904 0.065715 
89.96373 0.679138 
90.01722 0.082621 
90.034203 0.103988 
90.0373 9.997463 
90.046547 0.073872 
90.063171 0.069441 
90.947784 8.320535 
91.021332 0.070414 
91.040718 0.197822 
91.054291 26.421143 
91.057411 23.809132 
92.033073 1.039151 
92.04953 3.445344 
92.057205 4.052484 
92.060677 1.471326 
92.982727 0.382526 
92.986053 0.257719 
93.033493 2.008801 
93.036682 0.701956 
93.044701 0.351667 
93.054214 3.167068 
93.057426 1.948762 
93.070007 7.736585 
93.956039 0.542918 
94.02877 2.273346 
94.041367 1.482332 
94.052361 0.078681 
94.065231 11.040046 
95.012802 3.246906 
95.01577 0.065127 
95.049225 17.561075 
95.060478 5.802997 
95.068535 0.18121 
95.072906 0.480054 
95.085609 7.670906 
95.303291 0.069199 
95.951447 0.276631 
96.044495 12.98533 
96.047882 0.113924 
96.05246 0.822913 
96.055794 0.285048 
96.06813 0.366847 
96.080864 9.241886 
96.088898 0.296695 
96.995285 0.081841 
97.010788 0.749696 
97.028526 7.042164 
97.039726 1.219315 
97.047829 0.343428 
97.052147 0.172286 
97.06488 2.781459 
97.076118 3.368055 
97.084282 0.234975 
97.088661 0.096828 
97.101334 0.485683 
98.023766 0.254037 
98.047508 0.578044 
98.060165 11.106981 
98.096519 3.621315 
98.959908 0.066724 
98.975243 0.212602 
99.044151 3.121646 
99.055344 2.037687 
99.063515 0.269331 
99.067902 0.778954 
99.091736 0.406123 
99.948128 0.499418 
100.021538 0.155417 
100.03933 2.068601 
100.075775 6.700535 
100.11203 0.197269 
101.00563 0.702888 
101.023376 0.252803 
101.059738 2.455601 
101.079102 0.06886 
101.963661 0.081783 
102.037193 0.892275 
102.055 1.3081 
102.091431 0.805392 
102.948273 0.846739 
102.968948 0.327476 
103.039062 0.323314 
103.054367 9.410724 
103.109459 0.069838 
104.049576 14.777038 
104.057655 0.470208 
104.062164 0.087845 
104.070518 0.101343 
104.107086 4.009651 
104.230247 0.07585 
104.96376 0.228646 
105.033615 8.163627 
105.044846 2.508068 
105.053192 0.904535 
105.057358 4.439345 
105.07 15.568421 
105.916901 0.302565 
106.02877 0.194428 
106.036819 0.11278 
106.041222 0.080895 
106.065231 19.907158 
106.073296 0.410841 
106.604179 0.070389 
106.979118 0.091816 
107.036621 0.192116 
107.049217 15.787287 
107.060417 2.572501 
107.068649 0.908986 
107.072899 1.219885 
107.085548 3.588335 
107.950554 0.186307 
108.044441 8.786067 
108.052353 0.561118 
108.056023 0.171081 
108.068115 0.117971 
108.080902 6.706529 
108.958366 3.079124 
108.979294 0.073456 
109.028542 5.191765 
109.039795 0.250556 
109.048035 0.170218 
109.052231 1.05997 
109.064896 4.55055 
109.076088 2.479256 
109.084412 0.165176 
109.08857 0.105732 
109.101242 2.636329 
110.023766 6.719439 
110.036201 2.707294 
110.047523 0.148178 
110.060173 8.947699 
110.071381 3.858817 
110.096466 2.968386 
110.958771 0.075639 
111.026405 2.285015 
111.044189 12.511705 
111.055412 27.063366 
111.074654 0.079183 
111.08046 0.444011 
111.09169 0.167025 
111.270844 0.071729 
112.039314 1.919629 
112.046959 0.226394 
112.050865 0.699569 
112.058601 0.808842 
112.062943 0.89349 
112.075722 4.797033 
112.087036 1.354081 
112.112099 0.424062 
113.023117 0.146511 
113.029213 0.070594 
113.034576 0.82988 
113.0597 0.844906 
113.070892 1.641701 
113.963799 0.701351 
114.037354 0.215902 
114.055077 2.308496 
114.091415 3.32206 
114.102608 0.418757 
114.913895 0.070641 
114.96875 0.093278 
115.021378 0.729648 
115.03894 0.193788 
115.054329 5.303445 
115.086533 0.10515 
115.979546 0.118723 
116.01609 0.085684 
116.049538 4.348467 
116.057381 0.105144 
116.062195 0.086935 
116.070709 1.241818 
116.963768 1.967268 
116.971825 0.445734 
116.984947 1.058944 
117.033394 0.464539 
117.057487 7.709889 
117.069916 5.032952 
117.828697 0.069122 
117.958702 0.547748 
117.979652 0.092621 
118.032379 0.388597 
118.041344 0.155128 
118.061028 0.812975 
118.065163 16.866407 
118.07251 0.074464 
118.086342 9.314738 
118.925079 0.077715 
118.943085 0.305665 
118.967155 0.090638 
118.980316 0.103238 
119.036522 0.161866 
119.049278 7.291231 
119.06044 1.864429 
119.068604 0.798738 
119.073013 1.473372 
119.085556 3.138313 
119.951035 0.720233 
120.04425 7.88874 
120.056091 0.265419 
120.068207 0.087864 
120.080956 13.626415 
120.940582 1.48504 
120.958763 0.335153 
121.010643 0.098551 
121.028488 5.558868 
121.039673 0.254481 
121.047592 0.173824 
121.052132 0.634657 
121.064949 5.863097 
121.076103 3.37978 
121.084053 0.674481 
121.088615 0.854412 
121.101189 0.617733 
122.023788 0.158957 
122.031792 0.082723 
122.036217 0.087464 
122.060181 12.270229 
122.071472 7.609008 
122.083786 0.632537 
122.096466 4.471206 
122.940926 1.537577 
122.973564 0.07646 
123.044189 4.303889 
123.055328 1.679647 
123.063339 0.25443 
123.068016 1.486363 
123.079201 27.941118 
123.09169 1.648439 
123.116859 0.199822 
124.039459 6.788793 
124.051842 1.950748 
124.06321 1.626686 
124.075836 6.275119 
124.082474 1.462262 
124.086998 1.862588 
124.098717 0.076072 
124.112274 0.428728 
124.936226 1.318772 
124.999878 1.108366 
125.005493 0.197043 
125.02343 1.783838 
125.042191 0.825981 
125.04718 0.18742 
125.059738 0.885887 
125.071068 5.085115 
125.095284 0.4249 
125.961029 0.334487 
126.018669 0.791098 
126.055092 3.26165 
126.074211 0.088865 
126.091393 2.571427 
127.038902 1.004392 
127.050133 2.570678 
127.086487 0.583727 
127.094856 0.088237 
128.049484 4.678332 
128.062073 1.984342 
128.070633 1.883901 
128.08136 0.076747 
128.106979 0.273279 
128.963654 2.836746 
128.984177 0.06844 
129.052979 0.556937 
129.069946 4.033596 
130.028702 0.08593 
130.065201 30.212715 
130.077484 0.093925 
130.086426 0.467964 
130.097412 0.233949 
130.979004 0.534581 
131.000168 1.765835 
131.036697 0.26735 
131.049271 4.114846 
131.060501 1.958585 
131.068375 2.551897 
131.073334 1.930628 
131.085587 1.895889 
131.961441 0.40199 
131.974258 9.83912 
132.044418 29.381035 
132.056671 0.188381 
132.068237 0.961155 
132.080856 8.901983 
132.958328 3.595983 
132.978943 0.203934 
132.995361 0.52212 
133.028503 0.213695 
133.047562 1.91714 
133.052246 11.086704 
133.064575 3.021216 
133.07103 0.072324 
133.076004 3.441003 
133.088638 1.171677 
133.101151 0.571499 
133.94841 0.077805 
133.974686 0.169865 
134.023361 0.069104 
134.06012 36.235687 
134.071243 0.551274 
134.083939 0.451374 
134.096451 9.526245 
134.956284 1.948592 
134.974121 1.425563 
134.995911 0.766039 
135.026398 0.293958 
135.031586 0.552655 
135.044037 2.429571 
135.055405 1.749785 
135.063095 2.180022 
135.068192 0.709315 
135.080322 1.162758 
135.091675 4.552006 
135.099396 0.551761 
135.104355 0.108023 
135.117004 0.093641 
135.476334 0.063892 
135.927658 0.186599 
136.039444 6.720804 
136.050934 0.562384 
136.062134 3.057843 
136.075821 8.647048 
136.086975 1.541042 
136.099594 0.122763 
136.112152 1.908786 
136.952896 0.106069 
137.005722 0.070192 
137.023209 0.101448 
137.034744 0.071586 
137.042175 0.192844 
137.059769 5.18303 
137.070953 2.447068 
137.082657 1.1469 
137.095718 0.158789 
137.107361 0.423575 
137.928146 0.43588 
138.01857 2.076401 
138.055054 5.063955 
138.066025 0.111651 
138.091339 3.059314 
138.951141 2.656826 
138.983826 0.184279 
139.021255 0.760662 
139.039017 0.479674 
139.050232 7.930652 
139.086731 1.35607 
139.098221 0.108508 
139.923523 0.540982 
139.986862 0.088956 
140.028961 0.38561 
140.034348 1.680187 
140.04895 0.311397 
140.058228 0.925663 
140.070511 2.255088 
140.08168 0.189404 
140.106995 0.720193 
140.931244 0.066532 
140.95166 0.143235 
140.984436 2.553375 
140.999786 0.075929 
141.065506 0.420439 
141.070267 1.009707 
141.102219 0.212497 
142.065231 3.332754 
142.078018 0.515251 
142.086304 1.499783 
142.97966 0.782636 
143.000137 0.253504 
143.027328 1.15075 
143.035156 0.066147 
143.06073 0.574063 
143.072937 1.848818 
143.085602 1.696322 
143.974106 0.192456 
144.044403 21.570482 
144.056015 0.587589 
144.080917 7.26196 
144.101913 0.386061 
144.958466 0.724209 
144.979828 0.337688 
144.995789 0.213461 
145.028503 1.043025 
145.047409 1.021432 
145.052704 0.825052 
145.064987 3.082313 
145.07608 4.507815 
145.082016 0.08404 
145.089127 0.369085 
145.101257 0.441966 
145.966537 0.078992 
145.990112 0.097641 
146.02356 0.118037 
146.060089 17.561636 
146.070999 0.163107 
146.084045 1.025503 
146.096573 6.247237 
146.974411 14.056644 
146.995239 0.083705 
147.031433 2.445926 
147.044083 4.572721 
147.055283 1.52165 
147.062469 0.220185 
147.068054 1.80151 
147.080612 1.097217 
147.091736 6.2034 
147.104858 0.104023 
147.974625 3.393676 
148.021317 0.087904 
148.039474 7.196899 
148.050568 0.083403 
148.062683 1.867196 
148.075775 9.532068 
148.086777 0.910441 
148.099731 0.532909 
148.112137 2.131711 
148.972061 6.392621 
148.98912 0.744429 
149.01091 0.109355 
149.02359 0.090429 
149.029419 0.080149 
149.035797 0.091027 
149.04747 2.884345 
149.05957 1.510413 
149.071091 4.724419 
149.08316 0.715775 
149.107422 2.546109 
149.972 1.597391 
149.984924 7.634462 
150.037262 0.196403 
150.055084 25.101912 
150.06601 1.07467 
150.078445 0.260153 
150.091431 5.737396 
150.115097 0.149585 
150.951187 5.010081 
150.968918 6.939548 
150.984222 0.091174 
151.021255 0.090013 
151.039047 0.628001 
151.050659 1.131386 
151.058151 1.718541 
151.075165 0.644273 
151.086716 2.551543 
151.09816 0.72782 
151.12291 0.445835 
151.952148 0.100775 
151.958847 0.140825 
151.978943 0.205896 
152.034302 0.987473 
152.052795 1.371621 
152.063538 0.090521 
152.070694 5.208637 
152.081879 1.570932 
152.107162 1.555788 
152.951706 5.214948 
152.966919 1.841504 
152.989548 0.19767 
153.030167 0.073883 
153.036911 2.200642 
153.054977 0.225297 
153.06575 2.730486 
153.10228 0.319806 
153.95932 3.165274 
153.992691 0.299279 
154.03212 0.074123 
154.050034 0.651917 
154.064987 3.182455 
154.072067 0.089127 
154.086151 1.2719 
154.946945 2.877482 
154.966949 1.571063 
154.979095 0.107187 
155.000168 0.819365 
155.060364 2.174999 
155.073334 0.083452 
155.080597 0.246359 
155.085922 0.249854 
155.954865 4.474999 
155.974503 0.096669 
156.010117 0.085228 
156.044617 0.523222 
156.068314 0.7002 
156.080978 3.871369 
156.101807 0.766063 
156.946472 0.380986 
156.962646 0.83166 
157.0159 0.550536 
157.043152 3.881186 
157.052246 0.406651 
157.06456 1.706575 
157.076279 3.623605 
157.08902 0.241787 
157.101135 0.153393 
157.95224 0.481264 
157.990097 0.273938 
158.01123 0.090233 
158.047333 0.383688 
158.06012 9.285384 
158.071777 0.253095 
158.083984 0.47406 
158.096664 3.75652 
158.94194 0.079841 
158.974274 0.892431 
159.010803 0.179563 
159.055328 1.996985 
159.067841 1.898279 
159.080368 0.876992 
159.091919 6.610373 
159.104645 0.319115 
159.116669 0.082921 
159.968674 0.093037 
159.990005 0.110485 
160.039337 40.918507 
160.063736 0.118129 
160.075882 8.289902 
160.087204 0.339056 
160.094772 0.21874 
160.10025 0.120742 
160.112015 2.222561 
160.990311 0.098742 
160.998016 0.395552 
161.042206 2.859032 
161.047729 1.599492 
161.059601 1.361574 
161.071213 4.90713 
161.083496 0.948211 
161.095642 0.171366 
161.107391 1.703077 
161.114624 0.094639 
161.966827 0.134518 
162.037262 0.685965 
162.055054 15.295748 
162.066467 0.215205 
162.078949 1.063866 
162.091415 7.722349 
162.102798 0.198463 
162.12764 0.439135 
162.971893 0.134795 
163.005524 0.372319 
163.038498 0.074946 
163.050415 1.562157 
163.0578 0.748041 
163.075256 1.715984 
163.086792 4.635631 
163.09967 0.201961 
163.122818 0.290674 
163.977386 1.397018 
164.016739 0.091554 
164.034378 3.406858 
164.058182 1.137762 
164.07074 4.050751 
164.082092 2.641193 
164.093567 2.303246 
164.106949 2.883253 
164.951965 0.094369 
164.968048 0.106618 
164.98764 0.190006 
164.999924 0.252089 
165.024353 0.694134 
165.036575 0.115917 
165.042191 0.122642 
165.054596 0.34661 
165.070206 0.493578 
165.077591 0.594625 
165.102432 1.009648 
165.113632 1.991059 
166.032227 0.518557 
166.049866 3.67693 
166.086273 1.932225 
166.09761 2.465641 
166.123337 0.142365 
166.982513 1.010394 
167.0 0.517863 
167.060486 1.855319 
167.072937 1.730401 
167.080627 0.355144 
167.11795 0.263423 
168.008987 0.1987 
168.028336 0.073744 
168.057144 0.077889 
168.065613 3.806604 
168.080978 3.08989 
168.088654 0.323197 
168.10202 0.98992 
168.745117 0.076166 
168.9617 2.130857 
169.03418 0.479428 
169.052368 0.143016 
169.059586 0.093178 
169.064941 0.167973 
169.068634 0.096018 
169.076157 5.315868 
169.088867 0.50794 
169.100998 0.11436 
169.881943 0.103426 
169.990097 0.480423 
170.060226 3.454005 
170.071838 0.554716 
170.080627 0.393269 
170.096756 3.661791 
170.96228 4.422085 
170.970657 0.124015 
171.031158 0.093281 
171.055359 1.379213 
171.068665 0.08192 
171.080307 0.886246 
171.091843 3.130287 
172.005524 0.529199 
172.039383 7.968297 
172.063232 0.199912 
172.075806 4.44549 
172.087051 3.526904 
172.09935 0.652876 
172.112061 2.312392 
172.95784 1.97295 
173.059875 0.484291 
173.071136 5.496049 
173.083771 0.577076 
173.096756 0.102848 
173.107452 2.659263 
173.984863 0.363354 
174.021255 0.697198 
174.055099 11.513536 
174.064148 0.196216 
174.066788 0.1542 
174.079071 4.199672 
174.091492 4.476994 
174.101807 0.104134 
174.127777 0.427849 
175.038788 0.095139 
175.050568 0.814137 
175.058472 1.461919 
175.077606 0.513835 
175.086746 12.657799 
175.099319 0.346012 
175.123062 0.73562 
175.979446 0.087794 
176.016479 0.43005 
176.034454 2.258178 
176.058411 1.023777 
176.070892 3.569362 
176.082108 0.362497 
176.090134 0.528265 
176.107208 3.391765 
176.118256 0.089458 
176.144012 0.089634 
176.985107 0.796969 
177.02449 0.54096 
177.042358 1.175619 
177.056076 0.579521 
177.065964 10.921057 
177.074661 0.126484 
177.09198 0.089511 
177.102234 2.599796 
178.031921 0.222852 
178.042068 0.110745 
178.049973 12.045025 
178.07341 0.088547 
178.086456 4.640507 
178.096405 0.57928 
178.122498 0.247525 
178.964767 0.210285 
179.045105 0.238432 
179.052963 0.6708 
179.081116 0.543398 
179.093307 0.200513 
179.117798 0.332916 
179.977478 0.22123 
180.047485 3.283396 
180.065781 1.451644 
180.080826 3.330079 
180.101807 1.121851 
180.888077 1.066718 
181.05159 0.096424 
181.060944 1.756901 
181.076141 1.93208 
181.088745 0.357425 
181.097061 0.231052 
181.132812 0.094451 
181.988815 0.942713 
182.026993 0.169285 
182.060364 1.239941 
182.072449 0.137115 
182.083572 1.993573 
182.096558 1.768567 
182.104721 0.103516 
182.117767 0.268035 
182.887909 0.086536 
183.031647 0.096463 
183.055161 0.457699 
183.067917 0.946772 
183.081314 0.204331 
183.091812 2.248838 
184.005585 0.120157 
184.063568 0.365152 
184.075607 4.535454 
184.086441 0.779412 
184.099167 0.449643 
184.112213 1.693683 
184.884354 0.368976 
184.9897 0.111939 
185.047134 0.838963 
185.071121 11.775198 
185.080414 0.682891 
185.09552 0.253388 
185.107513 2.93199 
185.115906 0.075436 
185.949051 1.089658 
186.021439 0.105425 
186.055313 2.848792 
186.064957 0.388066 
186.078735 2.741899 
186.091476 4.826271 
186.102036 1.161779 
186.112625 0.650341 
186.127731 0.420771 
187.005478 0.088662 
187.050186 2.573527 
187.059647 0.077846 
187.077042 0.440782 
187.086807 8.867911 
187.096542 0.423925 
187.122986 1.2674 
187.944687 1.993474 
188.00029 0.086282 
188.034348 3.205342 
188.057999 0.781633 
188.07077 2.899376 
188.080429 0.242874 
188.094421 0.508726 
188.10704 2.494844 
188.116455 0.087 
188.924713 0.205915 
189.056396 0.098986 
189.065964 4.749951 
189.07843 0.261603 
189.093414 0.090679 
189.102249 2.274204 
189.113113 0.115348 
189.138382 0.130357 
189.995605 0.097013 
190.016769 0.103947 
190.032349 1.531226 
190.049896 4.003 
190.073959 1.435783 
190.086349 2.652848 
190.096878 0.575817 
190.122681 0.59625 
191.045502 0.245636 
191.072586 0.300568 
191.081573 4.681969 
191.117828 0.660831 
191.881287 0.174946 
191.99559 1.921012 
192.011292 0.328522 
192.047958 0.165919 
192.065872 1.266145 
192.08049 0.788475 
192.102005 3.136233 
192.112076 0.543052 
192.888428 0.100613 
192.961945 0.199196 
192.994873 2.106617 
193.018402 0.07172 
193.060745 1.00286 
193.076019 0.62158 
193.088837 0.290688 
193.097336 0.4848 
193.990448 1.095079 
194.027176 0.099189 
194.044907 0.73543 
194.061615 0.104054 
194.081879 0.474776 
194.096512 1.410183 
194.117615 0.349461 
195.055603 0.097236 
195.081375 0.361222 
195.091736 10.352315 
195.113281 0.291538 
196.005951 0.292963 
196.061005 0.21282 
196.075882 2.325348 
196.085098 0.082165 
196.096725 1.697381 
196.112122 0.859733 
197.071075 3.253376 
197.082428 0.615779 
197.094482 0.169891 
197.107422 1.050263 
197.875748 0.412333 
198.021301 0.123896 
198.056046 0.621732 
198.06665 0.873716 
198.078125 0.844533 
198.091553 3.745824 
198.101288 0.371173 
198.113541 0.738079 
198.127823 0.204168 
198.980759 0.091938 
199.050659 0.512987 
199.062729 0.388644 
199.076202 0.294131 
199.086639 3.911117 
199.096603 0.470134 
199.109802 0.144094 
199.123062 2.138213 
199.871078 1.236138 
200.058685 0.966152 
200.070724 1.997782 
200.081543 0.439034 
200.093842 0.401938 
200.107147 3.29275 
201.055313 0.253332 
201.065918 7.904179 
201.076645 0.396359 
201.090195 0.173361 
201.102325 1.996724 
201.113312 0.101441 
201.138809 0.514677 
201.868866 0.16657 
201.994995 0.469567 
202.050186 0.894489 
202.0737 4.462593 
202.086212 2.462285 
202.096909 0.546046 
202.110382 0.107344 
202.122742 0.954593 
202.894485 0.074763 
202.974701 0.12154 
203.045517 0.574282 
203.081589 14.343264 
203.118088 0.984067 
204.011658 0.205086 
204.051193 0.081097 
204.066406 0.34601 
204.080673 0.2983 
204.089813 0.712004 
204.10199 2.581562 
204.112732 0.15025 
204.982193 0.173577 
205.061081 2.348856 
205.075928 0.570422 
205.087585 0.099533 
205.097534 1.980152 
205.108124 0.081762 
205.133804 0.169249 
205.975098 0.179967 
205.989594 0.686463 
206.070801 0.08418 
206.083542 3.563999 
206.094635 0.363401 
206.117828 0.563209 
206.868286 0.874468 
206.99736 0.08932 
207.058273 0.087674 
207.07692 0.705234 
207.092056 3.069903 
207.102707 0.106117 
207.113159 0.475302 
207.148575 0.094796 
207.896606 0.10411 
207.990051 0.079727 
208.005844 0.114049 
208.028931 0.101744 
208.042816 0.302265 
208.063873 0.095323 
208.075806 1.39318 
208.098145 0.969192 
208.111847 1.823454 
208.883591 0.60481 
209.071213 0.440424 
209.083008 0.294673 
209.107269 1.993443 
209.128418 0.094819 
209.891129 0.619345 
209.984528 0.094877 
210.021759 0.284867 
210.079285 0.233351 
210.091507 3.315121 
210.112701 0.461791 
210.127548 0.176559 
210.899643 0.746863 
211.004822 0.078861 
211.075882 0.128152 
211.086838 3.828397 
211.097733 0.71272 
211.122787 0.718744 
212.070679 1.827134 
212.081436 0.254965 
212.093658 0.473244 
212.107025 2.751547 
212.129242 0.204083 
213.066116 7.295401 
213.077438 0.60129 
213.090637 0.203203 
213.102371 2.207428 
213.113022 0.115542 
213.124039 0.118503 
213.138367 0.445157 
213.886276 0.115445 
214.050201 0.385645 
214.073441 4.576005 
214.086273 2.46321 
214.097198 0.517238 
214.108582 0.371207 
214.122833 1.029341 
214.133102 0.095763 
214.940338 0.78076 
215.045074 0.09957 
215.081924 11.014275 
215.093246 0.270085 
215.118027 1.865849 
215.886139 0.209541 
216.053299 1.111404 
216.065659 0.543828 
216.076736 1.428574 
216.087753 1.058298 
216.10202 1.987077 
216.1129 0.087936 
216.992126 0.19223 
217.060852 2.735154 
217.097534 1.236668 
217.133835 0.113226 
217.882385 0.232439 
217.903534 0.087805 
217.990189 2.419311 
218.047089 0.12321 
218.068146 0.199436 
218.082031 0.223349 
218.095245 0.118853 
218.117645 0.92353 
218.868698 0.07303 
219.076752 3.147927 
219.091537 1.365059 
219.112183 0.125227 
219.768951 0.622487 
219.778976 0.108798 
219.791199 0.080934 
219.881195 0.105547 
219.897644 0.546793 
220.005783 0.511195 
220.060272 0.241763 
220.075134 0.33516 
220.085724 0.11608 
220.097656 1.024815 
220.111069 0.083529 
220.884277 0.15354 
221.071533 0.469595 
221.093552 0.48246 
221.10675 0.812811 
222.022278 0.515196 
222.078918 0.841443 
222.09169 1.317642 
222.11319 0.244711 
222.127518 0.104504 
222.898987 1.22713 
222.992355 0.095213 
223.086594 1.690922 
223.098236 0.25856 
223.123001 0.107037 
223.98558 0.677977 
224.000076 0.709504 
224.07045 0.215954 
224.094437 0.163474 
224.107254 2.166755 
224.118225 0.107228 
224.129227 0.11586 
224.878586 2.64796 
225.065826 0.315743 
225.078415 0.238908 
225.090256 0.253814 
225.102463 1.857958 
225.138718 0.104191 
225.886444 0.670845 
226.074203 0.471155 
226.086273 1.762083 
226.10881 0.249377 
226.122437 1.403606 
226.894745 0.395046 
227.070053 0.10024 
227.081558 2.857133 
227.093063 0.141756 
227.117889 2.054889 
228.065201 0.176277 
228.076309 0.090845 
228.089615 0.22204 
228.101929 1.976238 
228.11319 0.099717 
228.138168 0.198615 
228.892166 0.982379 
228.911713 0.69098 
229.060913 1.453284 
229.074112 0.094719 
229.09726 1.117892 
229.109451 0.126419 
229.133453 0.298092 
229.910278 1.455315 
230.010864 0.099436 
230.068909 0.756528 
230.081223 0.562792 
230.094528 0.089165 
230.117615 1.002613 
230.893082 0.399762 
230.907089 4.43839 
231.021545 0.290085 
231.076843 5.468783 
231.089706 0.359722 
231.112823 0.617434 
231.969498 0.105881 
232.005447 0.097436 
232.046021 0.203583 
232.082977 0.163964 
232.097427 0.645403 
232.109573 0.118691 
232.132706 0.190034 
232.903671 0.106823 
233.092697 2.260033 
233.106323 0.363404 
233.891647 0.651739 
234.045547 0.132712 
234.078369 0.130727 
234.092392 0.253715 
234.113419 0.102064 
234.899414 5.300937 
235.004166 0.200215 
235.053467 0.968125 
235.086487 1.130357 
235.123123 3.870943 
236.000671 1.700053 
236.060318 0.086511 
236.093475 0.201655 
236.106827 0.599351 
236.129898 2.518833 
237.06633 0.188244 
237.102203 0.993376 
237.138123 1.276167 
238.017075 0.124337 
238.072906 0.085785 
238.086334 1.31792 
238.109344 0.11059 
238.122635 0.639109 
238.914368 0.127296 
239.081528 0.753721 
239.09407 0.102034 
239.117966 1.743976 
239.885986 0.434133 
240.065659 0.085856 
240.088989 0.098495 
240.101761 1.165865 
240.113403 0.099738 
240.138611 0.218155 
240.909332 1.862179 
240.964569 0.34716 
241.086166 0.114603 
241.097153 0.440722 
241.133179 0.74539 
241.882248 1.410156 
242.081406 0.784707 
242.117462 1.100051 
242.894119 0.083955 
243.076599 4.220238 
243.089371 1.006578 
243.112991 0.569163 
243.880661 0.345429 
244.081131 0.092099 
244.096786 0.256673 
244.133286 0.259636 
244.905029 1.130899 
245.000732 0.102025 
245.0383 0.429594 
245.055206 0.201364 
245.093933 0.098712 
245.106354 0.090374 
245.128311 0.13149 
245.906342 0.10385 
246.045044 0.10486 
246.112656 0.388811 
246.903748 4.204711 
246.92157 0.311488 
247.07283 0.371713 
247.086884 0.240612 
247.905563 0.325713 
247.920654 0.738659 
248.106735 0.309812 
248.12796 0.126272 
248.878464 0.898669 
248.902405 1.926117 
248.917435 2.541003 
249.088181 0.23608 
249.102112 0.575714 
250.073868 0.206459 
250.08638 0.114577 
250.107925 0.096846 
250.122559 0.130641 
250.893951 0.873186 
251.08194 1.025591 
251.117294 0.316492 
251.154388 5.067198 
252.101257 0.694688 
252.123505 0.112991 
252.138275 0.165677 
252.158417 0.545667 
253.096619 0.252087 
253.133484 0.436161 
253.901428 0.127205 
254.080856 0.119839 
254.117569 0.890784 
255.061111 0.080034 
255.076675 0.108985 
255.089233 0.087934 
255.112793 0.607086 
255.150223 0.100957 
255.231812 0.168104 
256.097351 0.688352 
256.132477 0.108846 
257.10611 0.16778 
257.128723 0.28045 
257.896423 1.893856 
258.113556 0.236533 
258.897552 0.206539 
258.975555 0.100775 
259.086365 0.276468 
259.144257 0.106736 
259.892731 3.679885 
261.088379 0.122055 
261.123322 0.108865 
261.161285 0.083468 
261.890594 0.717492 
262.040497 0.078552 
262.894714 0.700285 
263.047333 0.204079 
263.082764 0.253446 
264.101929 0.111112 
265.097107 1.757748 
265.133453 0.096045 
266.101837 0.229786 
266.117371 0.758681 
266.889099 0.771828 
266.925842 0.300881 
266.999329 0.164936 
267.112946 0.443283 
267.826172 0.093882 
268.000183 0.144936 
268.097443 0.392174 
268.132843 0.102766 
268.978577 1.957217 
268.995819 0.829638 
269.128693 0.229646 
269.978699 3.199303 
270.112762 0.280729 
270.95929 0.103788 
270.975403 4.453259 
271.086182 0.111074 
271.975922 0.280129 
272.001465 0.281059 
272.091858 0.106129 
272.149475 0.698485 
273.101685 0.209252 
275.902924 0.129526 
276.910004 0.097768 
277.133667 0.089597 
278.097534 0.08302 
278.116486 0.080234 
279.148407 0.089017 
280.13443 0.084544 
280.813538 1.466954 
281.129639 0.115846 
282.829559 0.094485 
283.015472 0.647664 
283.106476 0.089034 
283.144165 0.227686 
283.892914 0.646385 
284.092499 0.35491 
284.143585 1.432582 
285.02774 0.119529 
285.064972 0.091741 
285.83606 0.68401 
285.890015 0.394786 
287.010742 0.329397 
287.120239 0.097772 
287.187164 0.216871 
287.830933 0.351969 
295.23941 0.088274 
296.127014 0.138888 
296.808533 5.17105 
297.138763 0.097869 
297.816071 2.047463 
300.822723 0.563046 
300.839752 1.411429 
301.026703 0.311186 
301.067047 2.216974 
301.903839 0.093225 
302.817871 0.092657 
306.830353 0.089313 
310.843872 1.663757 
311.15451 0.089485 
311.845581 0.100932 
312.16214 0.221914 
313.169281 0.216575 
313.18924 0.078642 
313.205048 0.210431 
314.175964 0.262233 
314.820404 0.086667 
315.005463 0.087825 
315.113129 0.196053 
318.85083 0.410509 
319.078033 0.547977 
322.824432 0.502712 
327.185699 0.858111 
328.192932 2.345433 
329.021149 0.321545 
329.199829 1.193848 
330.025909 0.082014 
340.181488 3.644778 
341.187195 1.829504 
342.195007 0.704629 
342.834015 0.710844 
356.212524 100.0 
357.215729 42.076073 
358.219177 5.800716 
358.310913 0.199478 
359.220642 0.098024 
360.183533 2.86089 
361.187012 1.249685 
362.627838 0.087972 
372.243561 10.539505 
373.246765 5.376094 
374.250702 0.086113 
END IONS

