BEGIN IONS
PEPMASS=298.201
CHARGE=1+
COMPOUNDNAME=(1R,2E,7R,10E,12S,13S,15R)-12,15-dihydroxy-7-methyl-8-oxabicyclo[11.3.0]hexadeca-2,10-dien-9-one
LIBRARYQUALITY=3
SMILES=N/A
INCHIKEY=KQNZDYYTLMIZCT-SWGFJCPHSA-N
INCHI=InChI=1S/C16H24O4/c1-11-5-3-2-4-6-12-9-13(17)10-14(12)15(18)7-8-16(19)20-11/h4,6-8,11-15,17-18H,2-3,5,9-10H2,1H3/b6-4+,8-7+/t11-,12+,13-,14+,15+/m1/s1
MSLEVEL=2
SOURCE_INSTRUMENT=N/A-ESI-QFT
FILENAME=library_mgf.mgf
SEQ=*..*
IONMODE=positive
ORGANISM=MONA
NAME=(1R,2E,7R,10E,12S,13S,15R)-12,15-dihydroxy-7-methyl-8-oxabicyclo[11.3.0]hexadeca-2,10-dien-9-one [M+NH4]+
PI=MoNA
DATACOLLECTOR=MoNA:VF-NPL-QEHF022881
PUBMED=N/A
SUBMITUSER=mwang87
TAGS=
SPECTRUMID=CCMSLIB00004713944
SCANS=22881
50.908737 0.050346 
51.232384 0.024682 
51.433296 0.03988 
51.832611 0.058404 
51.940315 1.143373 
53.002541 1.940702 
53.038925 0.849801 
53.04525 0.032929 
53.128925 0.051743 
53.444508 0.025966 
53.9394 0.116407 
53.983585 0.040623 
53.997807 0.076984 
54.421062 0.043939 
54.432812 0.04441 
54.937881 0.46379 
55.018166 1.485349 
55.054558 8.13628 
55.157425 0.049513 
55.934704 1.635468 
55.945652 0.047816 
56.049732 1.298712 
56.057873 0.101788 
56.211681 0.067799 
56.730675 0.051617 
56.942551 0.049589 
56.965084 5.861282 
56.966599 0.039658 
57.033783 0.866256 
57.070183 33.556892 
57.881081 0.045798 
57.935055 1.163726 
58.065414 13.291531 
58.073505 0.973172 
58.376953 0.043862 
59.049389 1.903261 
59.930496 0.33505 
59.990589 0.030811 
60.003235 0.041351 
60.044704 0.072459 
60.096603 0.030688 
60.116314 0.021193 
60.957897 1.818407 
61.010872 22.035263 
61.147419 0.025705 
61.616909 0.048711 
61.928036 0.151725 
62.018684 3.542932 
62.981915 0.530811 
62.990067 0.251014 
63.006706 0.071184 
63.026543 0.076937 
63.927559 0.022811 
63.997902 0.145682 
64.863632 0.046973 
65.03875 1.279548 
66.216431 0.023263 
66.75634 0.035347 
66.838951 0.038294 
67.050903 0.036271 
67.054367 10.1447 
67.371147 0.036664 
67.548859 0.025217 
67.934967 0.026661 
68.049606 0.523336 
68.057686 0.139535 
68.23661 0.053243 
68.942886 0.155783 
68.962669 0.02665 
69.033623 0.965617 
69.069992 5.208068 
69.23893 0.039518 
69.961006 0.083159 
70.028824 0.070144 
70.065216 2.747977 
70.22435 0.022613 
70.941879 0.245407 
70.957993 1.811595 
71.049225 1.687661 
71.085625 10.526531 
71.218353 0.032855 
71.940323 2.279031 
72.044464 0.247882 
72.080856 14.105882 
72.08889 0.224608 
72.455994 0.031625 
72.762016 0.023377 
72.937218 3.490372 
73.028442 0.497672 
73.046867 3.117821 
73.064835 0.272077 
73.08416 0.28997 
73.285301 0.046821 
74.046364 0.025383 
74.06015 0.143837 
74.096474 100.0 
74.663918 0.050538 
74.706551 0.048993 
75.093613 0.042039 
75.099846 3.62613 
75.132759 0.032543 
75.280807 0.038491 
76.053749 0.048798 
76.082977 0.023618 
77.008438 0.045062 
77.038841 0.042158 
77.585983 0.022884 
78.405891 0.05453 
79.018707 0.023412 
79.021217 3.371271 
79.054283 7.10424 
80.04953 0.625508 
80.057625 0.125572 
81.000282 0.124331 
81.033539 1.61358 
81.069939 9.630887 
81.364601 0.051807 
82.065231 0.591096 
82.07325 0.241029 
82.264938 0.044854 
83.04921 1.349166 
83.060272 0.037363 
83.085564 1.662464 
83.92981 0.04788 
84.044456 0.381169 
84.080826 0.818349 
85.028404 0.121496 
85.064857 0.444273 
85.076096 0.051869 
85.101295 3.207373 
85.103722 0.025759 
85.945686 0.047591 
86.060188 0.161696 
86.096542 0.110598 
86.876671 0.03508 
87.044151 4.998593 
88.039421 3.598442 
88.075813 0.055932 
88.434975 0.021755 
88.952415 0.448003 
88.968475 0.625287 
89.042793 0.024676 
89.059746 22.103704 
89.62307 0.023587 
89.950958 0.578612 
89.963753 1.227388 
90.38942 0.057471 
90.947762 2.808161 
91.054268 19.375231 
91.057411 13.032362 
92.057472 1.88921 
92.060661 0.3676 
92.948219 0.175197 
92.982758 0.051036 
93.036705 0.24397 
93.054306 0.150741 
93.069977 5.774836 
93.956116 0.114201 
94.065201 0.253996 
94.073257 0.172601 
95.015839 0.032095 
95.049194 3.523628 
95.072853 0.038028 
95.085564 5.821515 
95.174606 0.046084 
96.044418 0.158846 
96.052673 0.039498 
96.080742 0.206709 
96.08902 0.13286 
96.187202 0.083208 
97.028931 0.035586 
97.064903 0.480557 
97.101128 0.20701 
98.060165 0.215825 
98.096527 0.118888 
98.975311 0.072272 
98.984192 0.086249 
99.044083 0.088802 
99.07975 0.023967 
100.075722 0.287459 
100.504868 0.349343 
101.933159 0.450094 
102.055077 0.027754 
102.948196 0.181632 
102.968941 0.097367 
103.038963 1.154204 
103.05423 0.995164 
103.956139 0.077228 
104.948303 0.146926 
104.963661 0.083363 
104.984459 0.026523 
105.044975 0.271561 
105.069984 6.197403 
106.065346 0.114081 
106.07338 0.182976 
106.950607 0.038034 
106.963577 0.358252 
106.978844 0.029285 
107.00808 0.097855 
107.049202 4.031359 
107.070267 0.149409 
107.08548 2.510595 
107.397652 0.039593 
107.9506 0.091759 
107.961311 0.165773 
107.974358 0.041777 
108.016449 1.591217 
108.052551 0.048663 
108.08078 0.15028 
108.516846 0.072703 
108.958344 0.656907 
109.014862 0.126639 
109.064857 0.691113 
109.101166 1.253217 
110.060112 0.34783 
110.958885 0.033393 
111.044258 0.125498 
111.080475 0.259689 
112.075462 0.041122 
113.963448 0.03499 
114.390877 0.026956 
115.054329 0.800456 
116.062004 0.077771 
116.92971 0.040632 
116.963326 1.435263 
116.984695 1.18098 
117.069916 3.221173 
117.958557 0.044596 
117.971672 0.026336 
118.94487 0.306897 
118.963814 0.038999 
118.979843 0.174447 
119.049118 0.256869 
119.085617 2.452764 
119.943687 4.167903 
119.951057 0.561725 
119.956474 0.540326 
119.97168 0.090007 
120.081017 0.191332 
120.940575 1.158017 
120.958679 0.043688 
121.023735 0.056206 
121.028473 0.603855 
121.06488 11.564306 
121.101334 0.758737 
121.966942 0.149812 
122.068092 0.030161 
122.096504 0.064645 
122.940018 0.203984 
122.958832 0.040758 
123.080482 0.166989 
123.116867 0.034868 
123.946968 0.056169 
124.075768 0.071384 
124.936081 0.145513 
125.059776 0.031859 
125.999641 0.023809 
127.039192 0.258243 
127.303619 0.023563 
128.062012 0.791119 
128.963562 0.703974 
128.985779 0.242805 
129.069824 2.227173 
130.065643 0.026105 
130.073181 0.052935 
130.077805 0.054587 
130.196548 0.061431 
130.721573 0.023287 
130.942886 0.25547 
130.962967 0.202277 
131.000214 0.152648 
131.0495 0.035747 
131.08548 2.148957 
131.943558 0.203971 
131.974121 0.114063 
132.080795 0.121721 
132.95842 0.895546 
132.979218 0.122585 
132.994705 0.070298 
133.064789 0.645365 
133.085876 0.125135 
133.101196 0.937489 
133.932175 0.224686 
133.9487 0.025005 
133.959229 1.09593 
134.09642 0.313573 
134.930786 0.207326 
134.958527 1.503567 
134.973801 1.596896 
134.978867 0.168904 
134.995926 0.656598 
135.080322 0.282967 
135.116791 0.035464 
136.075806 0.276986 
136.112656 0.025154 
136.955368 0.625166 
136.97438 0.923257 
137.011749 0.55223 
137.023331 1.22144 
137.059723 0.297068 
137.954147 3.080504 
137.96701 0.411707 
138.95108 1.144975 
138.971481 0.542963 
138.984177 0.060034 
139.923782 0.031284 
140.984436 0.247388 
141.069824 0.235943 
141.903702 0.047092 
141.921219 0.042389 
142.077866 0.036427 
142.535126 0.045738 
143.000443 0.070718 
143.085648 1.178831 
143.921143 0.025104 
143.974258 0.028954 
143.995987 0.032631 
144.958694 2.336532 
145.064774 0.036094 
145.101288 0.671806 
145.363846 0.026107 
145.966232 0.026511 
146.06015 0.083562 
146.95636 0.322475 
146.974472 4.497449 
146.996292 0.18367 
147.04454 0.052005 
147.08046 0.193753 
147.116913 0.167995 
147.974869 0.404941 
147.990555 0.039305 
148.075745 0.027996 
148.955841 3.944669 
148.972473 2.184632 
148.989517 0.028132 
149.023499 0.111585 
149.954163 9.237331 
149.97197 0.02852 
150.128189 0.108393 
150.858215 0.02376 
150.951157 1.582159 
150.969406 0.693421 
150.989624 0.06106 
151.005783 0.027796 
151.942841 0.107376 
151.959412 0.169351 
151.969482 0.025115 
152.941284 0.051736 
152.951828 0.058054 
152.968842 0.51388 
152.989548 0.461875 
153.006882 0.025929 
153.959229 0.34282 
154.946976 0.552871 
154.964691 0.041734 
154.985168 0.166777 
154.999847 0.059694 
155.022263 0.199777 
155.085419 0.278492 
155.954849 0.589432 
155.96489 0.05899 
156.944809 0.046693 
156.9823 1.206514 
157.101105 0.663959 
157.952087 0.806789 
157.989944 0.033671 
158.011932 0.032041 
158.09642 0.048004 
158.190353 0.535776 
158.974197 0.360598 
159.116837 0.241442 
159.975571 0.055471 
159.990341 0.147743 
160.075562 0.04038 
160.112152 0.055543 
160.990433 0.042104 
161.010986 0.040968 
161.972168 0.079654 
162.969315 0.184154 
163.039154 0.026354 
163.977036 0.162312 
164.74585 0.038648 
164.96756 0.189757 
164.987213 0.093199 
165.049576 0.055948 
165.109619 0.028008 
166.966339 2.222363 
166.983154 0.098298 
167.085724 0.085147 
167.964737 4.709358 
168.961899 0.403585 
169.101364 0.024362 
170.961807 0.05349 
171.117188 0.03089 
172.005585 0.137363 
172.957748 0.228672 
174.006149 1.078209 
174.127121 0.041026 
174.991837 0.225826 
175.039673 0.0577 
176.886993 0.02319 
176.983719 0.172036 
177.006226 0.028406 
177.128571 0.047588 
178.892975 0.028498 
178.946762 0.074459 
178.96492 0.091169 
178.985443 0.160821 
179.000214 0.194194 
179.954117 0.176291 
180.028885 0.028966 
180.888184 0.521731 
180.980103 0.031999 
182.083847 0.26707 
183.207092 0.029003 
184.039825 0.041354 
185.071213 0.108272 
185.132477 0.027064 
185.948975 0.078104 
186.055099 0.044431 
186.222107 0.235693 
187.087601 0.047333 
187.945007 0.161104 
188.021774 0.143299 
188.895981 0.037794 
188.967422 0.942429 
189.941986 0.171393 
190.966385 0.097152 
191.022568 0.070173 
192.585968 0.028337 
192.961914 0.112756 
195.092361 0.048219 
198.899078 0.030093 
202.121048 0.038294 
202.160019 0.03807 
203.866898 0.024983 
206.043732 0.024297 
206.906586 0.071148 
206.977951 11.878703 
207.97847 1.280815 
208.903854 0.037141 
208.975525 0.32076 
209.891083 0.040886 
212.143158 0.05098 
218.044708 0.029563 
219.57222 0.402502 
219.597061 0.02741 
219.606796 0.067997 
220.257874 0.030679 
220.957825 0.041592 
221.878891 0.024995 
222.884033 0.058384 
222.899216 0.1159 
223.02739 1.514809 
223.891037 0.022419 
224.898544 0.029785 
225.042908 3.884866 
226.025848 0.0261 
226.043518 0.264295 
226.110367 0.028588 
227.022018 2.145358 
227.040176 0.083068 
228.023087 0.094744 
228.415543 0.023851 
228.912781 0.027283 
229.001709 1.089024 
229.018265 0.027402 
229.10466 0.093381 
229.657288 0.025979 
230.001343 0.025978 
230.044769 0.264427 
230.891739 0.058332 
230.906662 0.565425 
232.904602 0.081901 
237.094238 0.056918 
238.967422 1.843495 
240.909683 0.349232 
240.947296 0.026386 
240.96524 0.028736 
241.149109 0.032193 
242.081696 0.038687 
243.089798 0.029367 
243.23468 0.040539 
247.0121 0.18326 
248.01088 0.026518 
248.902206 0.383857 
248.916672 0.221855 
252.983521 0.030963 
254.034653 0.05213 
254.058105 0.041745 
254.117935 0.197913 
254.190918 0.03753 
254.962769 0.891119 
258.957336 0.034072 
259.071594 0.04929 
261.086945 0.083197 
265.020538 0.067593 
266.999146 13.619203 
267.112885 0.074685 
267.475006 0.043466 
267.999237 3.012337 
268.096771 4.563869 
268.300079 0.155718 
268.978668 6.344426 
268.995941 1.639742 
269.013611 0.160092 
269.10025 0.461201 
269.979034 0.799807 
269.996918 0.035801 
270.957886 0.230611 
270.993256 0.111181 
275.591339 0.041546 
275.811279 0.048459 
276.908447 0.074602 
278.518402 0.065773 
282.113708 0.081496 
283.030487 3.801318 
283.121033 0.051532 
283.820557 0.108105 
284.030853 0.482508 
285.009857 1.230017 
285.027863 0.452563 
285.045685 0.052589 
285.836578 0.063578 
286.010193 0.171186 
286.047668 0.051225 
286.845612 0.027829 
287.831482 0.081684 
288.968842 0.068196 
294.339935 0.028391 
295.825165 0.032599 
298.347046 12.370156 
299.061707 0.062827 
299.350067 2.682869 
300.82312 0.655342 
302.974304 0.073428 
303.019989 0.072692 
314.929352 0.026183 
315.426239 0.027231 
END IONS

