BEGIN IONS
PEPMASS=639.391
CHARGE=1+
COMPOUNDNAME=deferrioxamine E
LIBRARYQUALITY=3
SMILES=N/A
INCHIKEY=NHKCCADZVLTPPO-UHFFFAOYSA-N
INCHI=InChI=1S/C27H48N6O9/c34-22-10-14-26(38)32(41)20-8-3-6-18-30-24(36)12-15-27(39)33(42)21-9-2-5-17-29-23(35)11-13-25(37)31(40)19-7-1-4-16-28-22/h40-42H,1-21H2,(H,28,34)(H,29,35)(H,30,36)
MSLEVEL=2
SOURCE_INSTRUMENT=N/A-Linear Ion Trap
FILENAME=library_mgf.mgf
SEQ=*..*
IONMODE=positive
ORGANISM=MONA
NAME=deferrioxamine E M-H
PI=MoNA
DATACOLLECTOR=MoNA:VF-NPL-LTQ001797
PUBMED=N/A
SUBMITUSER=mwang87
TAGS=
SPECTRUMID=CCMSLIB00004685952
SCANS=1573
238.940002 21.404936 
267.109985 2.683729 
319.109985 0.861615 
323.019989 29.057806 
356.130005 1.42201 
375.220001 1.20283 
381.220001 1.657642 
403.170013 16.437824 
408.25 3.237418 
421.140015 95.481911 
439.190002 100.0 
479.25 2.036961 
506.320007 0.975938 
521.299988 5.157652 
538.23999 1.704499 
556.340027 1.553074 
580.409973 1.779738 
604.359985 1.462865 
607.320007 5.823777 
620.289978 6.11935 
END IONS

