BEGIN IONS
PEPMASS=343.115
CHARGE=1+
COMPOUNDNAME=Mycophenolic Acid
LIBRARYQUALITY=3
SMILES=N/A
INCHIKEY=HPNSFSBZBAHARI-RUDMXATFSA-N
INCHI=InChI=1S/C17H20O6/c1-9(5-7-13(18)19)4-6-11-15(20)14-12(8-23-17(14)21)10(2)16(11)22-3/h4,20H,5-8H2,1-3H3,(H,18,19)/b9-4+
MSLEVEL=2
SOURCE_INSTRUMENT=N/A-ESI-QFT
FILENAME=library_mgf.mgf
SEQ=*..*
IONMODE=positive
ORGANISM=MONA
NAME=Mycophenolic Acid [M+Na]+
PI=MoNA
DATACOLLECTOR=MoNA:VF-NPL-QEHF004795
PUBMED=N/A
SUBMITUSER=mwang87
TAGS=
SPECTRUMID=CCMSLIB00004695858
SCANS=4795
50.042534 0.005528 
50.492031 0.005808 
50.5252 0.010093 
50.95974 0.015096 
51.126766 0.015621 
51.257072 0.011052 
51.513382 0.007758 
51.740211 0.016926 
51.754673 0.015103 
52.522503 0.009861 
52.594963 0.0178 
52.669369 0.016364 
53.195786 0.009676 
53.46323 0.009722 
53.489487 0.003404 
53.757858 0.004117 
54.226936 0.017495 
55.417202 0.003928 
55.879696 0.015136 
55.996105 0.007094 
56.035927 0.003502 
56.073517 0.006376 
56.240952 0.012782 
56.318962 0.009432 
56.642319 0.003435 
57.760948 0.015098 
57.826694 0.008522 
57.989414 0.004356 
58.127171 0.002839 
58.470535 0.010821 
58.595284 0.013552 
59.016731 0.002625 
59.107483 0.01354 
59.239922 0.006268 
59.307949 0.016771 
60.355591 0.003581 
60.483147 0.013376 
60.574749 0.015091 
60.599033 0.006084 
60.986912 0.009587 
61.335102 0.009073 
61.633739 0.006815 
62.235714 0.008236 
62.242062 0.015988 
62.946163 0.006374 
63.091316 0.015455 
63.75536 0.003513 
64.622238 0.004394 
64.850769 0.0163 
64.98555 0.003012 
65.042732 0.015202 
65.482559 0.018019 
65.548981 0.006547 
65.979691 0.006686 
65.996033 0.006921 
66.201759 0.009522 
66.290703 0.002833 
66.47715 0.002409 
66.753799 0.016036 
67.457916 0.013983 
67.564346 0.008131 
67.615967 0.01191 
68.672432 0.008734 
68.826103 0.003229 
69.043297 0.003767 
69.234985 0.016166 
69.373802 0.004373 
70.73101 0.003231 
70.759224 0.012679 
71.036774 0.017721 
72.169884 0.004305 
72.40416 0.014339 
72.656952 0.010297 
73.022987 0.002232 
73.166862 0.006342 
73.403465 0.002599 
73.870796 0.005263 
74.181038 0.007639 
74.22963 0.007215 
74.427048 0.009788 
74.442421 0.011175 
75.17588 0.004523 
75.497948 0.003252 
75.515762 0.009073 
75.609055 0.01589 
75.886734 0.00476 
76.323326 0.00321 
77.556862 0.010793 
77.729393 0.004874 
78.726929 0.003146 
79.237396 0.007023 
79.800316 0.002821 
80.303482 0.006628 
80.457764 0.011017 
81.136108 0.003226 
81.819153 0.005057 
82.151787 0.003076 
83.89724 0.003309 
84.234879 0.003817 
84.734322 0.003718 
85.967155 0.017165 
86.065742 0.003605 
86.583221 0.011004 
87.044662 0.003064 
88.538612 0.009422 
89.03138 0.004068 
89.060341 0.631061 
89.076889 0.002513 
89.667572 0.00395 
89.790894 0.005825 
91.647331 0.005763 
92.217461 0.003952 
92.46965 0.002246 
93.072762 0.016032 
93.387009 0.010435 
93.674545 0.018263 
93.697708 0.002216 
95.086067 0.002563 
95.243706 0.015971 
95.876198 0.018875 
96.139305 0.013985 
97.983391 0.009077 
98.272644 0.008546 
98.473732 0.005526 
99.006813 0.014522 
99.170532 0.004204 
99.665939 0.016065 
100.44883 0.003717 
100.651428 0.009239 
101.532784 0.002706 
102.791504 0.006143 
102.996452 0.006773 
103.079536 0.013921 
103.609116 0.009015 
105.126701 0.009417 
105.327408 0.019042 
105.494225 0.008804 
105.531891 0.010025 
106.993324 0.011663 
107.967941 0.017959 
108.141052 0.019297 
108.770393 0.010273 
110.070152 0.003486 
114.276779 0.004762 
115.604324 0.011256 
115.799957 0.007902 
116.954941 0.008344 
117.399063 0.00686 
117.856758 0.002466 
118.093819 0.006558 
119.349808 0.002311 
120.261063 0.007464 
120.874878 0.00508 
120.911224 0.010364 
121.338463 0.007366 
122.566658 0.019736 
123.332558 0.019224 
123.5439 0.009504 
124.408112 0.004716 
124.920708 0.014265 
125.426781 0.002789 
125.486427 0.010188 
126.695992 0.018898 
128.147842 0.021107 
128.865875 0.018537 
130.283249 0.00627 
130.5681 0.017581 
130.916382 0.004224 
131.022675 0.002836 
132.596985 0.004527 
133.086105 0.149778 
135.156754 0.015215 
136.508636 0.007115 
137.317001 0.01081 
138.212006 0.01537 
138.921143 0.007222 
140.167694 0.017146 
140.419403 0.013155 
141.234756 0.015239 
141.663879 0.012986 
144.027374 0.011974 
146.490509 0.002777 
148.117722 0.018226 
149.748489 0.014537 
151.750656 0.007575 
151.817932 0.006874 
153.011093 0.002416 
156.2444 0.017295 
158.770447 0.011171 
159.116638 0.007227 
161.295929 0.004942 
163.057068 0.00517 
163.670441 0.006666 
167.852875 0.003697 
169.202423 0.005781 
169.848984 0.00437 
172.43927 0.012743 
175.266312 0.011655 
176.481552 0.004112 
178.120193 0.010727 
180.671921 0.013165 
181.215683 0.004534 
183.176407 0.002514 
186.318146 0.019149 
187.032913 0.002455 
188.09491 0.005898 
188.244415 0.011841 
188.541519 0.002672 
188.553772 0.003928 
188.617737 0.006851 
190.444763 0.011826 
191.818283 0.002727 
196.767181 0.006346 
197.051727 0.005175 
198.578629 0.003093 
198.66124 0.006307 
199.036682 0.782237 
200.682159 0.002326 
201.963776 0.011072 
205.82225 0.018427 
207.065094 0.036118 
207.700516 0.007938 
208.361786 0.014502 
214.023956 0.074837 
214.324081 0.014059 
214.671417 0.240424 
214.678497 0.395794 
214.684021 0.34444 
214.686035 0.351362 
214.700104 0.026311 
215.283112 0.019565 
216.037384 0.011118 
216.650635 0.014857 
217.047241 0.062973 
217.904724 0.011617 
218.593491 0.010403 
220.202759 0.024046 
223.595428 0.015939 
224.685272 0.005287 
225.510437 0.017058 
225.54306 0.004896 
226.775818 0.004469 
227.031387 0.011862 
227.074127 0.008844 
229.047211 62.777088 
230.050613 7.267988 
230.821213 0.017863 
230.917206 0.011721 
231.052887 0.270569 
231.94548 0.017899 
233.837921 0.004502 
234.901489 0.017272 
240.232147 0.863288 
240.675201 0.00659 
241.045273 0.002519 
241.235641 0.040842 
241.898636 0.01518 
242.461639 0.003681 
242.582886 0.00261 
242.931625 0.002583 
245.188385 0.00723 
246.2435 0.003229 
247.057266 0.05595 
247.120605 0.004868 
252.386688 0.012331 
252.96875 0.005959 
254.396317 0.015701 
255.062317 0.019483 
261.30127 0.010335 
269.079071 0.018461 
269.351685 0.0167 
269.67926 0.005641 
271.457184 0.015082 
274.188721 0.012721 
279.142334 0.015038 
279.29953 0.0023 
280.04834 0.003323 
280.159149 0.010117 
283.093903 1.52413 
284.097687 0.067178 
287.39389 0.003821 
288.025879 0.005924 
290.798615 0.006589 
292.123566 0.005724 
295.95578 0.004837 
296.294281 0.008408 
296.954651 0.011468 
299.126404 0.00652 
299.634094 0.016094 
304.0979 0.007542 
304.115204 0.002543 
314.589142 0.006409 
314.76889 0.002372 
318.443115 0.013189 
318.609558 0.008362 
322.055176 0.015759 
331.270172 0.009581 
334.383301 0.002299 
338.673004 0.013496 
339.415527 0.011394 
340.497589 0.011257 
341.098724 0.040346 
341.395477 0.002969 
342.10141 0.023603 
342.131531 0.117849 
343.115143 100.0 
344.118683 19.039864 
345.12027 1.602741 
355.530792 0.013551 
358.555786 0.00459 
361.110931 0.006624 
364.347137 0.007297 
END IONS

