BEGIN IONS
PEPMASS=245.096
CHARGE=1+
COMPOUNDNAME=Massbank:FIO00019 Biotin
LIBRARYQUALITY=3
SMILES=OC(=O)CCCC[C@H](S1)[C@@]([H])(N2)[C@@]([H])(NC(=O)2)C1
INCHIKEY=YBJHBAHKTGYVGT-ZKWXMUAHSA-N
INCHI=1S/C10H16N2O3S/c13-8(14)4-2-1-3-7-9-6(5-16-7)11-10(15)12-9/h6-7,9H,1-5H2,(H,13,14)(H2,11,12,15)/t6-,7-,9-/m0/s1
MSLEVEL=2
SOURCE_INSTRUMENT=ESI-LC-ESI-QTOF
FILENAME=Massbank_ESI_positive_8_1_2014_peaks.mgf
SEQ=*..*
IONMODE=Positive
ORGANISM=MASSBANK
NAME=Massbank:FIO00019 Biotin [M+H]+
PI=Putative Massbank Match
DATACOLLECTOR=Massbank
PUBMED=N/A
SUBMITUSER=mwang87
TAGS=
SPECTRUMID=CCMSLIB00000215108
SCANS=7126
79.0535 144.0 
81.0684 104.0 
82.0272 167.0 
85.0096 181.0 
91.0546 323.0 
93.0703 209.0 
94.065 142.0 
95.0852 189.0 
96.0805 110.0 
97.0395 2963.0 
98.0964 113.0 
99.0262 232.0 
100.0217 323.0 
101.0421 176.0 
102.0005 120.0 
103.0545 176.0 
105.07 3250.0 
106.0668 260.0 
107.0858 235.0 
108.0811 540.0 
109.0651 181.0 
110.0962 125.0 
111.0264 906.0 
112.0216 549.0 
113.0421 455.0 
114.0372 126.0 
115.0553 407.0 
118.0653 161.0 
120.0809 367.0 
121.065 280.0 
122.0966 553.0 
123.0265 4894.0 
124.0294 290.0 
125.042 877.0 
126.0013 202.0 
130.0666 145.0 
131.0281 102.0 
132.0807 341.0 
133.0888 591.0 
134.0603 239.0 
136.0761 182.0 
137.0711 257.0 
138.001 625.0 
139.0578 2631.0 
140.0549 272.0 
141.0539 125.0 
142.0324 173.0 
143.0273 321.0 
148.0761 267.0 
149.0419 655.0 
150.0915 254.0 
151.0868 969.0 
152.0934 189.0 
153.1023 517.0 
154.0686 291.0 
155.0277 232.0 
156.0844 486.0 
163.0866 306.0 
164.0529 212.0 
165.1025 353.0 
166.0684 1655.0 
167.0526 948.0 
181.0972 102.0 
182.0634 307.0 
184.079 1075.0 
185.0748 530.0 
192.0479 345.0 
199.0898 1007.0 
200.0922 107.0 
209.0742 357.0 
227.0848 1239.0 
228.0875 128.0 
END IONS

