BEGIN IONS
PEPMASS=1240.8
CHARGE=1+
COMPOUNDNAME=CYCLOSPORINE
LIBRARYQUALITY=3
SMILES=N/A
INCHIKEY=PMATZTZNYRCHOR-KMSBSJHKSA-N
INCHI=InChI=1S/C62H111N11O12/c1-25-27-28-40(15)52(75)51-56(79)65-43(26-2)58(81)67(18)33-48(74)68(19)44(29-34(3)4)55(78)66-49(38(11)12)61(84)69(20)45(30-35(5)6)54(77)63-41(16)53(76)64-42(17)57(80)70(21)46(31-36(7)8)59(82)71(22)47(32-37(9)10)60(83)72(23)50(39(13)14)62(85)73(51)24/h25,27,34-47,49-52,75H,26,28-33H2,1-24H3,(H,63,77)(H,64,76)(H,65,79)(H,66,78)/b27-25+/t40-,41?,42?,43?,44?,45?,46?,47?,49?,50?,51?,52-/m1/s1
MSLEVEL=2
SOURCE_INSTRUMENT=N/A-ESI-QFT
FILENAME=library_mgf.mgf
SEQ=*..*
IONMODE=positive
ORGANISM=MONA
NAME=CYCLOSPORINE [M+K]+
PI=MoNA
DATACOLLECTOR=MoNA:VF-NPL-QEHF028195
PUBMED=N/A
SUBMITUSER=mwang87
TAGS=
SPECTRUMID=CCMSLIB00004721776
SCANS=28195
87.778755 0.022958 
87.843361 0.019405 
88.436836 0.020943 
88.702179 0.01751 
88.930435 0.010777 
89.638107 0.011958 
89.906219 0.009602 
90.288261 0.019959 
91.414795 0.023983 
91.42025 0.01566 
93.892998 0.014445 
94.509605 0.015052 
97.28524 0.013341 
97.639511 0.022883 
98.303917 0.014536 
99.276825 0.013895 
99.412239 0.02073 
100.111778 0.48545 
102.608917 0.012567 
103.986404 0.010388 
106.911942 0.020173 
107.764885 0.009431 
109.163033 0.015342 
110.032089 0.008283 
112.543762 0.018177 
113.081024 0.019841 
113.363159 0.019465 
113.509018 0.015426 
114.486786 0.019558 
115.876564 0.016219 
117.785515 0.009393 
118.148132 0.019192 
121.936905 0.012844 
121.989761 0.013682 
122.065536 0.020905 
122.070869 0.440328 
126.018456 0.01599 
128.606964 0.015885 
130.295395 0.008113 
132.577484 0.012235 
133.837875 0.012725 
139.215652 0.021995 
139.308487 0.012863 
139.359482 0.016167 
140.69426 0.017198 
142.544876 0.015883 
144.047028 0.038614 
144.367096 0.011093 
144.534088 0.014421 
146.752762 0.009135 
148.422974 0.013587 
149.31926 0.013852 
150.403259 0.013963 
150.554993 0.017307 
155.697311 0.009252 
157.02713 0.02176 
158.608902 0.019524 
162.705734 0.01806 
165.807114 0.010853 
167.054703 0.011877 
167.311783 0.009249 
168.583206 0.013686 
169.21106 0.018156 
170.953644 0.009389 
171.390076 0.014586 
173.216232 0.01413 
173.631744 0.017094 
176.670074 0.012624 
180.482895 0.013815 
184.366714 0.010246 
188.800903 0.019216 
191.770584 0.008595 
192.213776 0.016152 
201.051376 0.01847 
201.794571 0.008906 
203.31398 0.021577 
204.781128 0.022376 
205.452606 0.01202 
210.148911 0.055153 
211.278473 0.011474 
215.036148 0.019187 
218.195175 0.016828 
218.35376 0.021296 
218.785919 0.009548 
223.599777 0.009577 
224.16391 0.134791 
227.887817 0.016909 
228.987335 0.013926 
230.78595 0.018001 
231.866135 0.00967 
238.391373 0.018408 
241.023621 0.016339 
241.915695 0.016047 
241.930603 0.016552 
243.65831 0.010005 
244.037018 0.016054 
248.680099 0.030229 
255.989029 0.014622 
258.019684 0.013174 
260.383667 0.008479 
264.02655 0.023928 
269.604309 0.011554 
271.508636 0.011417 
277.636414 0.010124 
283.930023 0.010214 
284.009399 0.024751 
286.562164 0.009656 
295.686646 0.01956 
297.935547 0.010974 
304.163483 0.039087 
304.188019 0.052944 
321.604401 0.016152 
323.080414 0.014493 
331.217621 0.010297 
333.813599 0.01798 
335.083405 0.012345 
338.170563 0.017943 
351.841156 0.018207 
351.908234 0.014448 
353.066956 0.017535 
360.120667 0.019484 
371.07901 0.016327 
372.056 0.018342 
383.547333 0.029574 
388.161469 0.013499 
392.930176 0.023434 
393.225494 2.631232 
394.229401 0.289708 
398.523041 0.020948 
404.06955 0.021585 
405.213806 0.010816 
407.789001 0.025168 
411.469971 0.021294 
411.848694 0.023567 
414.937988 0.0103 
417.40332 0.016138 
426.964905 0.012971 
433.011108 0.010389 
440.462341 0.009223 
443.661377 0.013196 
444.858673 0.019058 
454.76416 0.018418 
454.821594 0.013847 
466.273132 0.104377 
467.870087 0.017218 
468.529877 0.023452 
480.695404 0.019696 
483.258484 0.017488 
483.320923 0.018294 
484.978607 0.020933 
492.827454 0.00875 
493.725891 0.009866 
497.059296 0.00948 
506.309021 0.084809 
520.324829 1.126863 
521.327759 0.069013 
524.723511 0.016155 
524.87262 0.009814 
543.440979 0.019488 
548.319519 0.018091 
549.317505 0.078593 
563.329895 0.010519 
563.681274 0.00914 
565.34314 0.028622 
577.346375 0.803476 
578.350464 0.091081 
579.35376 0.061723 
586.33551 0.066079 
591.362427 1.879279 
592.366272 0.344982 
593.373108 0.09842 
619.355957 0.237199 
620.353943 0.281518 
623.350708 0.010129 
629.07135 0.020481 
636.383972 0.171364 
637.376526 0.011716 
657.675171 0.012592 
660.439697 0.027029 
662.218689 0.010256 
662.399597 3.226439 
663.403442 1.189394 
664.404846 0.08461 
674.053101 0.016571 
676.404663 0.010768 
688.377319 0.031978 
689.913208 0.020404 
690.39325 0.239268 
691.392822 0.078642 
692.441223 0.129728 
704.446228 0.075466 
705.457031 0.010699 
706.452209 0.025537 
708.405396 0.661766 
708.53949 0.020237 
708.817688 0.03121 
708.922119 0.105949 
708.98938 0.054407 
709.114441 0.023767 
709.410095 0.018391 
716.440491 0.011192 
718.391541 1.133348 
718.462219 0.075616 
719.404297 0.146453 
719.477051 0.08852 
721.436096 3.659705 
722.438965 1.154797 
723.439941 0.04244 
731.422119 0.092436 
733.434082 0.097 
734.382996 0.249455 
735.393494 0.012713 
742.433472 0.026018 
746.456665 0.433106 
747.455322 1.686726 
748.454773 0.33281 
754.502441 0.024944 
756.474121 0.015064 
763.482422 0.191081 
773.504944 0.161234 
789.423401 0.020959 
789.498291 2.724488 
790.50177 0.803336 
791.493652 0.013621 
801.085693 0.015833 
803.513977 0.31765 
805.598389 0.020991 
817.49353 0.991063 
818.492737 1.021258 
819.493591 0.076989 
827.499146 0.012151 
830.520935 0.027848 
831.541199 0.254824 
832.554138 0.025164 
835.501404 0.21686 
837.75177 0.020627 
845.492676 0.828687 
846.508423 0.406036 
846.584534 0.101747 
847.581238 0.049465 
848.534607 7.545018 
849.53949 2.955371 
850.538208 0.465255 
855.508423 0.038173 
859.531555 0.018184 
865.85437 0.017454 
871.557007 0.119931 
872.570374 0.058389 
873.517456 3.496931 
874.542969 5.260449 
875.551697 2.018022 
876.55127 0.195721 
886.551147 0.390758 
887.555115 0.027897 
890.583984 0.06218 
891.586426 0.019021 
895.424866 0.015227 
902.581177 0.707014 
903.589355 0.077685 
905.556396 0.193501 
914.550232 0.01844 
915.603882 0.183454 
916.601868 0.496909 
917.602112 0.063255 
919.572937 0.368365 
920.573914 0.040664 
933.585693 0.026428 
934.591003 0.016515 
934.878906 0.026315 
942.59613 0.050397 
943.624084 0.249767 
944.595947 1.703582 
945.600159 0.5189 
946.605896 0.468821 
947.607178 0.159275 
949.597778 0.018806 
954.581421 0.055658 
957.628845 0.012652 
958.584656 0.01592 
959.604126 0.015647 
961.619873 0.035708 
971.607544 0.018274 
972.601807 0.53137 
973.614502 0.390046 
974.624023 0.021853 
975.633667 1.10529 
975.736267 0.010432 
976.638184 0.295318 
982.60675 0.354622 
983.605225 0.163415 
987.622864 0.010869 
998.64325 0.019934 
999.633301 0.107123 
1000.620483 0.643545 
1001.614441 2.270772 
1002.616699 0.840399 
1003.663025 0.340895 
1014.665527 0.298625 
1015.664246 0.417411 
1016.658569 0.052749 
1017.647217 0.12203 
1025.64917 0.021633 
1027.63269 0.022509 
1029.681274 1.143084 
1030.687622 0.382414 
1041.682373 0.019729 
1042.595093 0.028677 
1043.261475 0.020097 
1043.658691 1.170149 
1044.660278 0.557884 
1045.670776 0.108328 
1055.692627 0.028679 
1056.682861 0.152631 
1057.675781 2.340851 
1058.678467 1.181142 
1059.682129 0.233929 
1067.662231 0.509856 
1068.662598 0.18691 
1069.675537 0.015935 
1070.655273 0.016555 
1071.694458 0.019733 
1073.707764 0.128323 
1081.680176 0.161844 
1082.69104 0.043909 
1083.698486 0.018805 
1084.723877 1.269175 
1085.72168 0.823495 
1086.706055 0.133953 
1095.686768 0.031919 
1096.681274 0.218762 
1097.693115 0.053216 
1098.760132 1.752403 
1099.764282 1.732936 
1100.717529 39.329903 
1101.72168 21.65987 
1102.583618 0.020648 
1102.72229 5.761256 
1106.487915 0.029073 
1109.722534 0.058859 
1110.701538 1.591105 
1111.707153 0.821539 
1112.72644 0.521641 
1113.726196 0.343972 
1123.763184 0.021989 
1124.684692 0.260417 
1126.755371 4.270179 
1127.760254 5.101288 
1128.713013 100.0 
1129.715942 58.491474 
1130.716675 16.322323 
1130.852539 0.149588 
1137.742676 0.030313 
1138.719604 0.017983 
1140.741699 0.066057 
1141.774414 0.440804 
1142.772949 0.085564 
1152.714966 0.218688 
1153.720703 0.06972 
1154.759644 0.252454 
1155.757446 0.055972 
1168.780151 0.017101 
1169.768066 0.03939 
1178.805908 0.056385 
1179.786743 0.020626 
1192.831421 0.140214 
1193.835327 0.33765 
1194.795044 5.571533 
1195.798584 3.314234 
1196.806641 1.809372 
1197.815796 0.160402 
1198.817261 0.031117 
1210.845947 0.720006 
1211.847412 1.239104 
1212.807373 19.939299 
1213.810425 12.895944 
1214.811401 3.694772 
1220.833496 0.80925 
1221.835449 1.523231 
1222.790649 20.557213 
1223.794434 13.767375 
1224.794556 4.317074 
1238.841309 3.171891 
1239.846069 4.95181 
1240.802002 91.56395 
1241.805298 61.038536 
1242.805298 18.663788 
END IONS

