BEGIN IONS
PEPMASS=427.393
CHARGE=1+
COMPOUNDNAME=3-Epilupeol
LIBRARYQUALITY=3
SMILES=N/A
INCHIKEY=MQYXUWHLBZFQQO-ISZJTHHZSA-N
INCHI=InChI=1S/C30H50O/c1-19(2)20-11-14-27(5)17-18-29(7)21(25(20)27)9-10-23-28(6)15-13-24(31)26(3,4)22(28)12-16-30(23,29)8/h20-25,31H,1,9-18H2,2-8H3/t20-,21+,22-,23+,24+,25+,27+,28-,29+,30+/m0/s1
MSLEVEL=2
SOURCE_INSTRUMENT=N/A-ESI-QFT
FILENAME=library_mgf.mgf
SEQ=*..*
IONMODE=positive
ORGANISM=MONA
NAME=3-Epilupeol [M+H]+
PI=MoNA
DATACOLLECTOR=MoNA:VF-NPL-QEHF005661
PUBMED=N/A
SUBMITUSER=mwang87
TAGS=
SPECTRUMID=CCMSLIB00004696724
SCANS=5661
50.174183 0.092265 
51.105202 0.068817 
51.461914 0.089002 
51.61586 0.077754 
51.940739 1.991614 
52.113819 0.092897 
52.422802 0.070579 
52.789623 0.103164 
52.863293 0.077711 
52.919872 0.096661 
53.003025 4.186736 
53.039402 3.083853 
53.275558 0.07468 
53.485943 0.085628 
53.63295 0.081409 
53.669567 0.07372 
53.978462 0.083058 
54.932728 0.085656 
54.970814 0.096472 
55.005337 0.093167 
55.01865 5.821841 
55.055008 43.258888 
55.228329 0.08643 
55.269199 0.086896 
55.287895 0.08125 
55.701317 0.099152 
55.935326 0.087042 
56.050297 1.62895 
56.058411 0.908159 
56.245071 0.087556 
56.66589 0.104536 
56.747818 0.092569 
56.965565 17.404081 
56.977142 0.073937 
57.034283 4.190509 
57.070656 100.0 
57.935612 0.591204 
57.938419 0.071441 
58.018291 0.084922 
58.065899 19.464237 
58.074032 3.477179 
58.794533 0.083064 
58.994579 0.078712 
59.049927 11.174444 
59.061157 3.028838 
59.510338 0.077928 
59.742889 0.088532 
59.991047 7.483759 
60.045181 2.150842 
60.053486 0.094316 
60.081535 0.456183 
60.359001 0.082862 
61.011391 14.648496 
61.648842 0.100601 
62.019234 6.948777 
62.060867 0.48227 
62.063816 0.078702 
62.386345 0.073331 
62.629173 0.079396 
62.982452 0.459667 
62.990715 0.182616 
63.054634 0.096841 
63.084187 0.085933 
63.998463 0.530371 
65.039307 2.397969 
65.247223 0.087242 
65.353355 0.096945 
65.624931 0.082612 
65.754372 0.093058 
65.844376 0.085062 
65.882439 0.083433 
65.890114 0.093797 
66.02494 0.073303 
66.116631 0.083021 
66.438766 0.08001 
66.459099 0.080284 
66.537086 0.084961 
67.054932 47.393276 
67.692169 0.088047 
67.841125 0.078695 
68.050255 0.653973 
68.058342 2.077667 
68.181786 0.099366 
68.314545 0.075474 
69.03421 6.550726 
69.070587 41.973751 
69.767052 0.106249 
70.029503 0.178041 
70.054428 0.111879 
70.065842 4.925765 
70.073921 0.883075 
70.217606 0.08594 
71.049866 4.629143 
71.073494 0.109596 
71.086212 46.905117 
71.137199 0.084588 
71.43644 0.095105 
71.952568 0.111165 
72.045097 2.926002 
72.081474 1.362224 
72.0896 1.137526 
72.937767 0.100204 
73.02916 1.350177 
73.047501 2.836627 
73.065475 0.217537 
73.956917 0.244403 
73.993439 0.095956 
74.060577 0.112029 
74.07045 0.100442 
74.097069 5.039481 
74.43084 0.071831 
74.931503 0.189543 
75.693321 0.083171 
76.076225 0.090035 
76.444237 0.079374 
76.508171 0.075827 
77.039436 0.082436 
77.177002 0.093522 
77.377861 0.071899 
78.013954 0.099786 
78.047173 0.092599 
78.9562 0.079266 
79.021782 9.877293 
79.05484 30.013161 
79.798401 0.08731 
80.050209 0.10329 
80.058182 1.168897 
80.501122 0.075333 
80.50528 0.090321 
80.948479 0.688195 
81.0009 0.121489 
81.017792 0.081862 
81.034119 0.90379 
81.07048 71.208961 
81.636047 0.08576 
82.065788 0.449111 
82.073799 3.744744 
82.557777 0.098256 
83.049744 4.641523 
83.086121 18.764063 
83.436699 0.080663 
83.611252 0.080499 
84.044907 0.422794 
84.081375 1.9428 
84.089394 0.290246 
85.029007 1.177182 
85.040215 0.379267 
85.065392 5.012327 
85.077263 0.075328 
85.101723 18.363157 
85.498848 0.077581 
86.060661 0.328985 
86.096977 6.646059 
86.105133 0.221584 
86.81562 0.097047 
87.044601 2.581218 
87.928543 0.084012 
88.022079 11.683461 
88.076126 0.391855 
89.060272 2.518669 
89.579231 0.08325 
89.790863 0.081723 
90.296295 0.100756 
90.405678 0.106857 
90.94838 0.119331 
91.051643 0.133299 
91.054764 29.45125 
91.05793 29.311035 
91.64138 0.09562 
91.967102 0.179262 
92.058121 1.370905 
93.037292 2.585605 
93.070351 50.311794 
93.372871 0.085514 
93.889542 0.077577 
93.956741 0.094548 
94.065605 0.252044 
94.073715 3.075956 
95.049637 12.473989 
95.085983 76.529366 
95.235138 0.097627 
96.053497 0.078497 
96.081284 0.48893 
96.089325 5.261486 
96.641418 0.104738 
96.995651 1.145267 
97.029045 0.198972 
97.040108 0.478926 
97.065262 4.718882 
97.101624 8.406399 
98.060677 0.349271 
98.096931 0.783422 
98.441231 0.087145 
98.975815 2.704752 
99.044533 1.937542 
99.080795 0.444109 
99.30687 0.097998 
99.65799 0.083087 
100.07618 0.924755 
100.112503 1.283839 
100.776215 0.097111 
100.917732 0.094847 
101.003586 0.1073 
101.06002 1.352243 
101.556671 0.104386 
102.451431 0.089878 
102.92617 1.6053 
102.948669 0.106785 
102.963463 0.096616 
102.969368 0.119391 
103.039413 0.14657 
103.054672 1.311878 
104.040947 0.083795 
104.107353 1.78935 
105.012115 0.093241 
105.033928 0.449892 
105.045105 1.200435 
105.070236 44.527035 
105.073868 1.312613 
105.516243 0.085856 
106.073639 3.498416 
106.077728 0.109858 
107.049446 2.300878 
107.085892 72.887222 
108.081047 0.168283 
108.089264 5.974098 
108.958977 0.079625 
109.065071 8.281984 
109.101486 32.614391 
109.268066 0.079906 
109.85556 0.084641 
110.060173 0.342049 
110.096947 0.094622 
110.104912 2.458335 
110.848808 0.084564 
110.877617 0.087295 
110.894348 0.087288 
111.044212 0.13146 
111.080788 3.202916 
111.117203 0.654846 
113.059547 0.106349 
114.091713 0.284397 
115.054649 0.904874 
115.48127 0.083362 
116.053116 2.586148 
116.107346 0.207857 
116.921234 0.079825 
116.963715 0.090025 
116.986137 6.261771 
117.070145 8.638829 
118.073219 0.112629 
118.087212 0.084228 
118.656029 0.086987 
118.94313 0.130042 
118.995522 0.079889 
119.002052 0.22078 
119.04937 4.528731 
119.060677 0.512415 
119.085754 53.792984 
120.081032 2.712091 
120.089081 4.624157 
120.093651 0.140338 
120.916794 0.111448 
120.958939 0.106699 
121.028633 0.273352 
121.065018 6.843381 
121.088562 0.195009 
121.096748 0.17271 
121.101425 39.961952 
122.104683 2.88308 
122.941101 0.474384 
123.080612 7.03843 
123.117012 10.795174 
124.120163 0.528092 
125.000084 3.179559 
125.05983 0.092787 
125.096245 0.272219 
125.225037 0.084632 
128.062164 1.40876 
128.58017 0.088526 
129.069946 4.33522 
129.776398 0.082271 
129.787308 0.076671 
129.874283 0.0994 
130.077744 1.113706 
130.932358 0.115622 
130.979645 0.094466 
131.000595 0.296746 
131.04921 0.562563 
131.085632 16.53574 
131.718048 0.076795 
132.088898 0.95742 
132.093719 0.279224 
132.099472 0.089473 
132.957916 0.088379 
133.064926 3.657559 
133.075912 0.117108 
133.101242 30.992678 
134.012085 0.105659 
134.05954 0.0997 
134.096268 0.269813 
134.10466 3.105745 
134.182755 0.129508 
134.996475 12.539559 
135.044205 0.702627 
135.08046 14.873858 
135.116882 23.69628 
135.280579 0.080069 
135.74649 0.079789 
135.825989 0.084666 
136.083542 0.135902 
136.120209 1.859722 
136.958038 0.223212 
137.012054 0.109269 
137.059906 0.427724 
137.096237 4.184184 
137.132568 4.101909 
137.954346 0.090535 
137.970963 0.087142 
139.210464 0.085265 
140.143509 0.271384 
140.959122 0.628609 
141.070068 1.027017 
141.111664 0.083378 
141.346909 0.080025 
141.949326 0.228812 
142.077866 2.271612 
142.955658 0.102434 
143.085587 8.158718 
144.093842 1.314463 
144.958817 0.212353 
145.064926 1.321149 
145.101212 21.387257 
146.09697 0.099687 
146.104233 1.056314 
146.475403 0.087744 
146.97438 7.275019 
147.080475 5.155153 
147.116791 19.641594 
147.318436 0.092819 
147.974655 0.93228 
148.075851 0.094562 
148.112671 0.098767 
148.120193 1.172801 
148.488373 0.088966 
148.972046 0.465925 
149.011948 1.538453 
149.045029 0.703678 
149.059982 0.213295 
149.096222 4.569663 
149.132523 8.28029 
150.13591 0.106376 
150.968735 0.673007 
151.075684 0.473706 
151.111618 0.400813 
151.970108 3.883372 
152.951492 0.32161 
152.968964 0.240546 
152.989441 0.202976 
153.007095 2.751134 
153.959351 2.87029 
153.96701 1.964762 
153.991531 0.095586 
154.957291 0.587005 
154.968613 2.682902 
155.060913 0.103998 
155.085571 3.001826 
155.954697 0.608081 
155.970047 0.096133 
155.981735 0.088996 
156.093643 1.66191 
156.175308 0.100119 
157.101288 9.957133 
157.952194 0.208033 
158.072433 0.116574 
158.109604 0.609888 
159.080475 3.928324 
159.116867 18.150421 
159.983444 0.097841 
160.088242 0.106128 
160.112 0.09028 
160.119873 0.704708 
160.990189 0.087954 
161.059387 0.142717 
161.096191 7.591557 
161.132523 7.701713 
161.626831 0.104241 
162.030411 0.100157 
162.099243 0.119959 
162.135544 0.091373 
162.976791 0.092359 
163.027557 0.201634 
163.075562 0.249718 
163.111938 1.941422 
163.148117 1.200514 
164.114883 0.116608 
164.456696 0.08844 
164.920425 1.640912 
165.930771 0.094901 
165.963272 0.101845 
166.557434 0.0899 
167.019424 0.102927 
167.055557 6.18196 
167.373917 0.082182 
168.093674 0.457554 
168.534256 0.099362 
168.983612 0.391316 
169.053741 0.13727 
169.101105 4.468626 
169.980621 1.892998 
170.108932 0.286892 
170.96315 4.463643 
171.00029 0.092887 
171.013763 0.575432 
171.080582 1.420765 
171.116882 6.565971 
172.088501 1.018748 
172.125183 0.109873 
172.957886 0.101165 
172.979355 0.53793 
173.09613 6.242069 
173.132538 7.750377 
173.763687 0.112979 
174.005798 0.27214 
174.97258 5.636089 
175.039124 4.381002 
175.075928 0.15068 
175.111755 6.382229 
175.148239 3.970008 
176.01181 0.078924 
176.04213 0.873786 
176.15213 0.093863 
176.84584 0.093556 
176.989197 0.195803 
177.090775 0.115236 
177.127472 1.735833 
177.163727 0.592493 
178.169373 0.103878 
179.069885 0.095781 
179.085342 0.128512 
180.888046 0.580809 
181.101303 0.924663 
181.905304 0.092314 
182.053223 0.087307 
182.108826 0.123495 
182.776993 0.104391 
183.080475 0.112482 
183.09111 0.109255 
183.116989 4.776829 
184.073441 0.864468 
185.096252 1.427375 
185.132538 3.936664 
185.949005 1.459444 
186.103806 0.397799 
186.92717 0.125985 
186.947128 2.658816 
187.075531 0.125805 
187.111755 22.128 
187.148315 4.021246 
187.944336 0.219418 
188.114975 1.594095 
188.15152 0.221909 
188.973892 7.493256 
188.988113 0.520703 
189.054474 0.09239 
189.091568 0.15515 
189.127411 1.083991 
189.163742 6.944339 
189.334305 0.099239 
189.92392 0.083523 
190.167099 0.109121 
190.953964 2.00196 
190.990662 0.221958 
191.106537 0.403252 
191.143341 0.16098 
191.179459 0.112164 
191.988907 0.250956 
191.998856 0.105035 
192.947281 0.104023 
192.986877 0.24108 
193.10173 0.123981 
194.999725 9.575149 
195.082123 0.108806 
195.116959 1.110516 
195.929169 0.26405 
196.001221 0.187261 
197.132599 2.168279 
198.898849 0.213777 
199.111923 0.647277 
199.148376 1.715792 
199.16127 0.091349 
200.119537 0.297494 
201.127487 6.44687 
201.163773 0.90864 
201.975418 0.097079 
202.132095 0.103641 
202.374939 0.099347 
202.672409 0.096674 
203.143021 2.366465 
203.179245 0.108799 
204.146301 0.230973 
205.15889 0.559997 
206.09877 0.090934 
207.117477 0.196646 
208.883316 0.252556 
208.965012 0.884634 
208.99234 0.17642 
209.014755 0.154702 
209.132538 0.6332 
209.44133 0.097058 
211.112366 0.131544 
211.148193 0.677723 
212.058685 0.124026 
212.152252 0.096499 
213.010178 20.616238 
213.127182 0.512903 
213.164322 0.373938 
214.011276 0.929046 
214.094757 0.111762 
214.368866 0.099692 
215.006165 0.217838 
215.108002 0.099929 
215.143127 1.992893 
215.178955 0.089544 
216.987061 0.113622 
217.158707 0.107942 
219.014648 0.095697 
219.174332 0.509701 
220.101547 0.201535 
220.114426 0.557539 
220.125015 0.684104 
220.145462 0.17629 
220.148453 0.192902 
220.847809 0.08728 
221.132767 0.109689 
222.898788 3.760389 
223.148209 0.286106 
224.154877 0.102991 
224.968445 0.457121 
225.04274 1.03318 
225.163635 0.791553 
226.075333 0.082991 
226.216614 0.258084 
226.989868 0.226035 
227.023956 0.966986 
227.070206 0.344105 
227.143311 0.135487 
227.934982 0.23759 
227.991638 0.10496 
228.900314 0.265342 
229.158554 0.127186 
230.532745 0.100602 
230.980865 2.355915 
231.020706 1.190183 
231.126511 0.114498 
231.980225 0.128821 
232.283432 0.081862 
232.964188 0.096324 
233.015778 0.365943 
233.891129 0.23476 
234.14209 0.102199 
234.899765 0.098805 
234.938904 0.109085 
234.997986 0.401133 
235.148026 0.110979 
236.955338 1.540778 
238.913498 0.506393 
239.179214 0.211048 
240.909103 12.399546 
242.909241 0.38375 
242.977982 0.201855 
243.173996 1.230133 
243.206009 0.110165 
243.907608 0.729301 
244.156219 0.105581 
244.909958 0.119947 
244.931335 0.800926 
245.907394 0.250233 
246.573547 0.085403 
246.910233 2.258735 
248.940628 1.095804 
248.9552 0.495815 
248.991959 9.126127 
249.163467 0.125057 
249.990738 0.413223 
250.062317 0.101583 
250.893982 0.348332 
250.970734 0.44547 
251.025665 8.692012 
252.02977 0.130318 
252.949768 6.254909 
253.139465 0.101962 
253.948868 0.115902 
254.106461 0.262977 
254.927185 0.104942 
254.966522 2.79463 
264.969177 0.093455 
265.111237 0.104511 
266.913147 1.488433 
266.96524 0.81829 
267.911102 3.502803 
268.90921 0.883771 
268.979523 0.80402 
269.036255 2.129198 
270.826416 0.108909 
270.923645 0.131053 
270.961884 0.115759 
272.117096 0.369156 
272.976837 9.295669 
273.977295 1.019631 
274.974243 0.414266 
275.9021 0.158705 
277.005402 3.851619 
278.013367 0.289285 
280.928802 0.115847 
284.807861 0.126917 
284.923462 0.528049 
285.815704 3.037937 
286.955841 1.437493 
287.035309 1.370764 
287.831024 2.140642 
288.838928 0.817101 
289.195038 0.117996 
290.947968 0.419719 
290.987701 2.440178 
292.926849 0.256019 
293.508575 0.087654 
294.831299 0.090777 
294.905945 0.512227 
295.017395 0.107081 
297.01355 0.115364 
300.251556 0.082061 
302.818207 4.403229 
303.242615 0.097397 
304.966217 0.544427 
305.045959 7.282642 
310.991302 0.147809 
311.07132 0.303695 
311.236816 1.321294 
312.242065 0.12466 
312.838989 11.380659 
313.84137 0.100757 
324.325958 3.671846 
324.888123 1.579182 
325.252197 0.640203 
325.329712 0.248644 
326.818359 0.211353 
327.826141 7.07079 
328.83313 0.570478 
329.863953 0.102189 
339.267731 0.325538 
342.898895 0.684959 
342.997009 1.39744 
343.643158 0.091959 
344.828583 7.201707 
345.831238 0.095628 
353.284027 0.082364 
354.312836 0.095884 
355.989044 0.083004 
359.79184 0.090737 
361.108948 0.157381 
364.716644 0.099046 
370.18576 0.090959 
374.970215 0.084642 
379.533264 0.075307 
382.138733 0.103118 
391.17572 0.088402 
395.013611 0.092519 
403.293091 0.100392 
409.392029 0.101131 
428.423035 0.125156 
442.890198 0.081174 
446.319092 0.088505 
447.346313 3.379445 
448.350037 0.485199 
450.621643 0.105886 
END IONS

